

Framework Information:
MOOSE Version:           git commit fcafd43481 on 2021-04-09
LibMesh Version:         
PETSc Version:           3.14.2
SLEPc Version:           3.14.0
Current Time:            Sat May 22 16:00:15 2021
Executable Timestamp:    Sun May 16 21:23:26 2021

Parallelism:
  Num Processors:          10
  Num Threads:             1

Mesh: 
  Parallel Type:           replicated
  Mesh Dimension:          2
  Spatial Dimension:       2
  Nodes:                   
    Total:                 4225
    Local:                 460
  Elems:                   
    Total:                 4096
    Local:                 410
  Num Subdomains:          1
  Num Partitions:          10
  Partitioner:             metis

Nonlinear System:
  Num DOFs:                50700
  Num Local DOFs:          5520
  Variables:               { "gr0" "gr1" "gr2" "gr3" "gr4" ... "gr7" "gr8" "gr9" "disp_x" "disp_y" } 
  Finite Element Types:    "LAGRANGE" 
  Approximation Orders:    "FIRST" 

Auxiliary System:
  Num DOFs:                49281
  Num Local DOFs:          4970
  Variables:               "bnds" { "gt_indices" "unique_grains" "vonmises_stress" "C1111" "phi1" ... 
                             "phi2" "EBSD_grain" "RGB_x" "RGB_y" "RGB_z" } 
  Finite Element Types:    "LAGRANGE" "MONOMIAL" 
  Approximation Orders:    "FIRST" "CONSTANT" 

Execution Information:
  Executioner:             Transient
  TimeStepper:             IterationAdaptiveDT
  Solver Mode:             Preconditioned JFNK
  PETSc Preconditioner:    hypre boomeramg 

Grain Adjacency Matrix:
0  1  0  0  0  0  0  0  0  0  0  0  0  0  1  0  0  0  0  0  0  0  0  0  0  0  0  0  0  0  0  0  0  0  0  0  0  0  0  0  0  0  0  0  0  0  0  0  0  0  0  0  0  0  0  0  0  0  0  0  0  0  0  0  0  0  0  0  0  0  0  0  0  0  0  0  0  0  0  0  0  0  0  0  0  0  0  0  0  0  0  0  0  0  0  0  0  0  0  0  0  0  0  0  0  0  0  0  0  0  0  
1  0  1  1  0  0  0  0  0  0  0  0  0  0  1  1  1  0  0  1  0  0  1  0  0  1  0  0  0  1  0  0  0  1  0  0  0  0  0  0  0  0  0  0  0  0  0  0  0  0  0  0  0  0  0  0  0  0  0  0  0  0  0  0  0  0  0  0  0  0  0  0  0  0  0  0  0  0  0  0  0  0  0  0  0  0  0  0  0  0  0  0  0  0  0  0  0  0  0  0  0  0  0  0  0  0  0  0  0  0  0  
0  1  0  1  0  0  0  0  0  0  0  0  0  0  0  1  1  0  0  0  0  0  0  0  0  0  0  0  0  0  0  0  0  0  0  0  0  0  0  0  0  0  0  0  0  0  0  0  0  0  0  0  0  0  0  0  0  0  0  0  0  0  0  0  0  0  0  0  0  0  0  0  0  0  0  0  0  0  0  0  0  0  0  0  0  0  0  0  0  0  0  0  0  0  0  0  0  0  0  0  0  0  0  0  0  0  0  0  0  0  0  
0  1  1  0  1  1  0  0  0  0  0  0  1  0  0  1  1  0  0  0  1  1  0  1  0  0  1  0  0  0  0  0  0  0  0  0  0  0  0  0  0  0  0  0  0  0  0  0  0  0  0  0  0  0  0  0  0  0  0  0  0  0  0  0  0  0  0  0  0  0  0  0  0  0  0  0  0  0  0  0  0  0  0  0  0  0  0  0  0  0  0  0  0  0  0  0  0  0  0  0  0  0  0  0  0  0  0  0  0  0  0  
0  0  0  1  0  1  1  0  0  0  0  0  1  0  0  0  0  0  0  0  0  0  0  0  0  0  0  0  0  0  0  0  0  0  0  0  0  0  0  0  0  0  0  0  0  0  0  0  0  0  0  0  0  0  0  0  0  0  0  0  0  0  0  0  0  0  0  0  0  0  0  0  0  0  0  0  0  0  0  0  0  0  0  0  0  0  0  0  0  0  0  0  0  0  0  0  0  0  0  0  0  0  0  0  0  0  0  0  0  0  0  
0  0  0  1  1  0  1  1  1  0  0  0  1  0  0  0  0  0  0  0  0  0  0  0  0  0  0  0  0  0  0  0  0  0  0  0  0  0  0  0  0  0  0  0  0  0  0  0  0  0  0  0  0  0  0  0  0  0  0  0  0  0  0  0  0  0  0  0  0  0  0  0  0  0  0  0  0  0  0  0  0  0  0  0  0  0  0  0  0  0  0  0  0  0  0  0  0  0  0  0  0  0  0  0  0  0  0  0  0  0  0  
0  0  0  0  1  1  0  1  1  0  0  0  1  1  0  0  0  1  1  0  0  1  0  0  1  0  0  0  0  0  0  0  0  0  0  0  0  0  0  0  0  0  0  0  0  0  0  0  0  0  0  0  0  0  0  0  0  0  0  0  0  0  0  0  0  0  0  0  0  0  0  0  0  0  0  0  0  0  0  0  0  0  0  0  0  0  0  0  0  0  0  0  0  0  0  0  0  0  0  0  0  0  0  0  0  0  0  0  0  0  0  
0  0  0  0  0  1  1  0  1  1  1  0  0  1  0  0  0  0  0  0  0  0  0  0  0  0  0  0  0  0  0  0  0  0  0  0  0  0  0  0  0  0  0  0  0  0  0  0  0  0  0  0  0  0  0  0  0  0  0  0  0  0  0  0  0  0  0  0  0  0  0  0  0  0  0  0  0  0  0  0  0  0  0  0  0  0  0  0  0  0  0  0  0  0  0  0  0  0  0  0  0  0  0  0  0  0  0  0  0  0  0  
0  0  0  0  0  1  1  1  0  1  0  0  0  1  0  0  0  1  0  0  0  0  0  0  0  0  0  0  0  0  0  0  0  0  0  0  0  0  0  0  0  0  0  0  0  0  0  0  0  0  0  0  0  0  0  0  0  0  0  0  0  0  0  0  0  0  0  0  0  0  0  0  0  0  0  0  0  0  0  0  0  0  0  0  0  0  0  0  0  0  0  0  0  0  0  0  0  0  0  0  0  0  0  0  0  0  0  0  0  0  0  
0  0  0  0  0  0  0  1  1  0  1  1  0  1  0  0  0  0  0  0  0  0  0  0  0  0  0  0  0  0  0  0  0  0  0  0  0  0  0  0  0  0  0  0  0  0  0  0  0  0  0  0  0  0  0  0  0  0  0  0  0  0  0  0  0  0  0  0  0  0  0  0  0  0  0  0  0  0  0  0  0  0  0  0  0  0  0  0  0  0  0  0  0  0  0  0  0  0  0  0  0  0  0  0  0  0  0  0  0  0  0  
0  0  0  0  0  0  0  1  0  1  0  1  0  1  0  0  0  0  0  0  0  0  0  0  0  0  0  0  0  0  0  0  0  0  0  0  0  0  0  0  0  0  0  0  0  0  0  0  0  0  0  0  0  0  0  0  0  0  0  0  0  0  0  0  0  0  0  0  0  0  0  0  0  0  0  0  0  0  0  0  0  0  0  0  0  0  0  0  0  0  0  0  0  0  0  0  0  0  0  0  0  0  0  0  0  0  0  0  0  0  0  
0  0  0  0  0  0  0  0  0  1  1  0  0  1  0  0  0  0  0  0  0  0  0  0  0  0  0  0  0  0  0  0  0  0  0  0  0  0  0  0  0  0  0  0  0  0  0  0  0  0  0  0  0  0  0  0  0  0  0  0  0  0  0  0  0  0  0  0  0  0  0  0  0  0  0  0  0  0  0  0  0  0  0  0  0  0  0  0  0  0  0  0  0  0  0  0  0  0  0  0  0  0  0  0  0  0  0  0  0  0  0  
0  0  0  1  1  1  1  0  0  0  0  0  0  0  0  0  0  1  1  0  1  1  0  1  0  0  0  0  0  0  0  0  0  0  0  0  0  0  0  0  0  0  0  0  0  0  0  0  0  0  0  0  0  0  0  0  0  0  0  0  0  0  0  0  0  0  0  0  0  0  0  0  0  0  0  0  0  0  0  0  0  0  0  0  0  0  0  0  0  0  0  0  0  0  0  0  0  0  0  0  0  0  0  0  0  0  0  0  0  0  0  
0  0  0  0  0  0  1  1  1  1  1  1  0  0  0  0  0  1  1  0  0  0  0  0  1  0  0  1  0  0  1  0  0  0  0  0  1  1  0  1  1  0  1  0  1  0  0  0  0  0  0  0  0  0  0  0  0  0  0  0  0  0  0  0  0  0  0  0  0  0  0  0  0  0  0  0  0  0  0  0  0  0  0  0  0  0  0  0  0  0  0  0  0  0  0  0  0  0  0  0  0  0  0  0  0  0  0  0  0  0  0  
1  1  0  0  0  0  0  0  0  0  0  0  0  0  0  0  0  0  0  1  0  0  1  0  0  0  0  0  1  0  0  1  0  0  0  0  0  0  0  0  0  0  0  0  0  0  0  0  0  0  0  0  0  0  0  0  0  0  0  0  0  0  0  0  0  0  0  0  0  0  0  0  0  0  0  0  0  0  0  0  0  0  0  0  0  0  0  0  0  0  0  0  0  0  0  0  0  0  0  0  0  0  0  0  0  0  0  0  0  0  0  
0  1  1  1  0  0  0  0  0  0  0  0  0  0  0  0  1  0  0  0  0  0  0  0  0  0  0  0  0  0  0  0  0  0  0  0  0  0  0  0  0  0  0  0  0  0  0  0  0  0  0  0  0  0  0  0  0  0  0  0  0  0  0  0  0  0  0  0  0  0  0  0  0  0  0  0  0  0  0  0  0  0  0  0  0  0  0  0  0  0  0  0  0  0  0  0  0  0  0  0  0  0  0  0  0  0  0  0  0  0  0  
0  1  1  1  0  0  0  0  0  0  0  0  0  0  0  1  0  0  0  0  0  0  0  0  0  1  1  0  0  1  0  0  0  1  0  0  0  0  0  0  0  0  0  0  0  0  0  0  0  0  0  0  0  0  0  0  0  0  0  0  0  0  0  0  0  0  0  0  0  0  0  0  0  0  0  0  0  0  0  0  0  0  0  0  0  0  0  0  0  0  0  0  0  0  0  0  0  0  0  0  0  0  0  0  0  0  0  0  0  0  0  
0  0  0  0  0  0  1  0  1  0  0  0  1  1  0  0  0  0  1  0  0  1  0  0  1  0  0  0  0  0  0  0  0  0  0  0  0  0  0  0  0  0  0  0  0  0  0  0  0  0  0  0  0  0  0  0  0  0  0  0  0  0  0  0  0  0  0  0  0  0  0  0  0  0  0  0  0  0  0  0  0  0  0  0  0  0  0  0  0  0  0  0  0  0  0  0  0  0  0  0  0  0  0  0  0  0  0  0  0  0  0  
0  0  0  0  0  0  1  0  0  0  0  0  1  1  0  0  0  1  0  0  1  1  0  1  1  0  0  0  0  0  0  0  0  0  0  0  0  0  0  0  0  0  0  0  0  0  0  0  0  0  0  0  0  0  0  0  0  0  0  0  0  0  0  0  0  0  0  0  0  0  0  0  0  0  0  0  0  0  0  0  0  0  0  0  0  0  0  0  0  0  0  0  0  0  0  0  0  0  0  0  0  0  0  0  0  0  0  0  0  0  0  
0  1  0  0  0  0  0  0  0  0  0  0  0  0  1  0  0  0  0  0  0  0  1  0  0  1  0  0  1  0  0  1  1  0  1  1  0  0  0  0  0  0  0  0  0  0  0  0  0  0  0  0  0  0  0  0  0  0  0  0  0  0  0  0  0  0  0  0  0  0  0  0  0  0  0  0  0  0  0  0  0  0  0  0  0  0  0  0  0  0  0  0  0  0  0  0  0  0  0  0  0  0  0  0  0  0  0  0  0  0  0  
0  0  0  1  0  0  0  0  0  0  0  0  1  0  0  0  0  0  1  0  0  1  0  1  0  0  0  0  0  0  0  0  0  0  0  0  0  0  0  0  0  0  0  0  0  0  0  0  0  0  0  0  0  0  0  0  0  0  0  0  0  0  0  0  0  0  0  0  0  0  0  0  0  0  0  0  0  0  0  0  0  0  0  0  0  0  0  0  0  0  0  0  0  0  0  0  0  0  0  0  0  0  0  0  0  0  0  0  0  0  0  
0  0  0  1  0  0  1  0  0  0  0  0  1  0  0  0  0  1  1  0  1  0  0  1  1  0  1  0  0  0  0  0  0  0  0  0  0  0  1  0  0  0  0  0  0  1  1  0  0  1  1  0  0  0  0  0  0  0  0  0  0  0  0  0  0  0  0  0  0  0  0  0  0  0  0  0  0  0  0  0  0  0  0  0  0  0  0  0  0  0  0  0  0  0  0  0  0  0  0  0  0  0  0  0  0  0  0  0  0  0  0  
0  1  0  0  0  0  0  0  0  0  0  0  0  0  1  0  0  0  0  1  0  0  0  0  0  1  0  0  1  0  0  1  1  0  0  1  0  0  0  0  0  0  0  0  0  0  0  0  0  0  0  0  0  0  0  0  0  0  0  0  0  0  0  0  0  0  0  0  0  0  0  0  0  0  0  0  0  0  0  0  0  0  0  0  0  0  0  0  0  0  0  0  0  0  0  0  0  0  0  0  0  0  0  0  0  0  0  0  0  0  0  
0  0  0  1  0  0  0  0  0  0  0  0  1  0  0  0  0  0  1  0  1  1  0  0  1  0  1  0  0  0  0  0  0  0  0  0  0  0  1  0  0  0  0  0  0  1  0  0  0  1  0  0  0  0  0  0  0  0  0  0  0  0  0  0  0  0  0  0  0  0  0  0  0  0  0  0  0  0  0  0  0  0  0  0  0  0  0  0  0  0  0  0  0  0  0  0  0  0  0  0  0  0  0  0  0  0  0  0  0  0  0  
0  0  0  0  0  0  1  0  0  0  0  0  0  1  0  0  0  1  1  0  0  1  0  1  0  0  0  0  0  0  0  0  0  0  0  0  1  0  1  1  0  0  0  0  0  0  1  0  0  0  1  0  0  0  0  0  0  0  0  0  0  0  0  0  0  0  0  0  0  0  0  0  0  0  0  0  0  0  0  0  0  0  0  0  0  0  0  0  0  0  0  0  0  0  0  0  0  0  0  0  0  0  0  0  0  0  0  0  0  0  0  
0  1  0  0  0  0  0  0  0  0  0  0  0  0  0  0  1  0  0  1  0  0  1  0  0  0  0  0  1  1  0  1  1  1  1  1  0  0  0  0  0  0  0  1  0  0  0  1  0  0  0  0  0  0  0  0  0  0  0  0  0  0  0  0  0  0  0  0  0  0  0  0  0  0  0  0  0  0  0  0  0  0  0  0  0  0  0  0  0  0  0  0  0  0  0  0  0  0  0  0  0  0  0  0  0  0  0  0  0  0  0  
0  0  0  1  0  0  0  0  0  0  0  0  0  0  0  0  1  0  0  0  0  1  0  1  0  0  0  0  0  0  0  0  0  1  0  0  0  0  1  0  0  1  0  0  0  1  0  0  1  1  0  0  1  0  1  1  0  1  0  0  0  0  0  0  1  0  0  1  0  0  0  0  0  0  0  0  0  0  0  0  0  0  0  0  0  0  0  0  0  0  0  0  0  0  0  0  0  0  0  0  0  0  0  0  0  0  0  0  0  0  0  
0  0  0  0  0  0  0  0  0  0  0  0  0  1  0  0  0  0  0  0  0  0  0  0  0  0  0  0  0  0  1  0  0  0  0  0  0  1  0  0  0  0  0  0  0  0  0  0  0  0  0  0  0  0  0  0  0  0  0  0  0  0  0  0  0  0  0  0  0  0  0  0  0  0  0  0  0  0  0  0  0  0  0  0  0  0  0  0  0  0  0  0  0  0  0  0  0  0  0  0  0  0  0  0  0  0  0  0  0  0  0  
0  0  0  0  0  0  0  0  0  0  0  0  0  0  1  0  0  0  0  1  0  0  1  0  0  1  0  0  0  0  0  1  1  0  1  1  0  0  0  0  0  0  0  1  0  0  0  0  0  0  0  0  0  0  0  0  0  0  0  0  0  0  0  0  0  0  0  0  0  0  0  0  0  0  0  0  0  0  0  0  0  0  0  0  0  0  0  0  0  0  0  0  0  0  0  0  0  0  0  0  0  0  0  0  0  0  0  0  0  0  0  
0  1  0  0  0  0  0  0  0  0  0  0  0  0  0  0  1  0  0  0  0  0  0  0  0  1  0  0  0  0  0  0  0  1  0  0  0  0  0  0  0  0  0  0  0  0  0  0  0  0  0  0  0  0  0  0  0  0  0  0  0  0  0  0  0  0  0  0  0  0  0  0  0  0  0  0  0  0  0  0  0  0  0  0  0  0  0  0  0  0  0  0  0  0  0  0  0  0  0  0  0  0  0  0  0  0  0  0  0  0  0  
0  0  0  0  0  0  0  0  0  0  0  0  0  1  0  0  0  0  0  0  0  0  0  0  0  0  0  1  0  0  0  0  0  0  0  0  1  1  0  1  1  0  1  0  1  0  0  0  0  0  0  0  0  0  0  0  0  0  0  0  0  0  0  0  0  0  0  0  0  0  0  0  0  0  0  0  0  0  0  0  0  0  0  0  0  0  0  0  0  0  0  0  0  0  0  0  0  0  0  0  0  0  0  0  0  0  0  0  0  0  0  
0  0  0  0  0  0  0  0  0  0  0  0  0  0  1  0  0  0  0  1  0  0  1  0  0  1  0  0  1  0  0  0  1  0  1  1  0  0  0  0  0  0  0  0  0  0  0  0  0  0  0  0  0  0  0  0  0  0  0  0  0  0  0  0  0  0  0  0  0  0  0  0  0  0  0  0  0  0  0  0  0  0  0  0  0  0  0  0  0  0  0  0  0  0  0  0  0  0  0  0  0  0  0  0  0  0  0  0  0  0  0  
0  0  0  0  0  0  0  0  0  0  0  0  0  0  0  0  0  0  0  1  0  0  1  0  0  1  0  0  1  0  0  1  0  0  1  1  0  0  0  0  0  0  0  1  0  0  0  0  0  0  0  0  0  0  0  0  0  0  0  0  0  0  0  0  0  0  0  0  0  0  0  0  0  0  0  0  0  0  0  0  0  0  0  0  0  0  0  0  0  0  0  0  0  0  0  0  0  0  0  0  0  0  0  0  0  0  0  0  0  0  0  
0  1  0  0  0  0  0  0  0  0  0  0  0  0  0  0  1  0  0  0  0  0  0  0  0  1  1  0  0  1  0  0  0  0  0  1  0  0  0  0  0  1  0  1  0  0  0  1  1  0  0  0  1  0  1  0  1  0  0  1  1  1  0  1  0  0  0  0  0  1  0  0  0  0  0  0  0  0  0  0  0  0  0  0  0  0  0  0  0  0  0  0  0  0  0  0  0  0  0  0  0  0  0  0  0  0  0  0  0  0  0  
0  0  0  0  0  0  0  0  0  0  0  0  0  0  0  0  0  0  0  1  0  0  0  0  0  1  0  0  1  0  0  1  1  0  0  1  0  0  0  0  0  0  0  1  0  0  0  1  0  0  0  0  0  1  0  0  0  0  0  0  0  0  0  0  0  0  0  0  0  0  0  0  0  0  0  0  0  0  0  0  0  0  0  0  0  0  0  0  0  0  0  0  0  0  0  0  0  0  0  0  0  0  0  0  0  0  0  0  0  0  0  
0  0  0  0  0  0  0  0  0  0  0  0  0  0  0  0  0  0  0  1  0  0  1  0  0  1  0  0  1  0  0  1  1  1  1  0  0  0  0  0  0  0  0  1  0  0  0  1  0  0  0  0  0  0  0  0  0  0  0  0  0  0  0  0  0  0  0  0  0  0  0  0  0  0  0  0  0  0  0  0  0  0  0  0  0  0  0  0  0  0  0  0  0  0  0  0  0  0  0  0  0  0  0  0  0  0  0  0  0  0  0  
0  0  0  0  0  0  0  0  0  0  0  0  0  1  0  0  0  0  0  0  0  0  0  0  1  0  0  0  0  0  1  0  0  0  0  0  0  0  0  1  1  0  0  0  1  0  0  0  0  0  0  0  0  0  0  0  0  0  0  0  0  0  0  0  0  0  0  0  0  0  0  0  0  0  0  0  0  0  0  0  0  0  0  0  0  0  0  0  0  0  0  0  0  0  0  0  0  0  0  0  0  0  0  0  0  0  0  0  0  0  0  
0  0  0  0  0  0  0  0  0  0  0  0  0  1  0  0  0  0  0  0  0  0  0  0  0  0  0  1  0  0  1  0  0  0  0  0  0  0  0  1  1  0  1  0  1  0  0  0  0  0  0  0  0  0  0  0  0  0  0  0  0  0  0  0  0  0  0  0  0  0  0  0  0  0  0  0  0  0  0  0  0  0  0  0  0  0  0  0  0  0  0  0  0  0  0  0  0  0  0  0  0  0  0  0  0  0  0  0  0  0  0  
0  0  0  0  0  0  0  0  0  0  0  0  0  0  0  0  0  0  0  0  0  1  0  1  1  0  1  0  0  0  0  0  0  0  0  0  0  0  0  1  0  0  0  0  0  1  1  0  0  1  1  0  0  0  0  0  0  0  0  0  0  0  0  0  0  0  0  0  0  0  0  0  0  0  0  0  0  0  0  0  0  0  0  0  0  0  0  0  0  0  0  0  0  0  0  0  0  0  0  0  0  0  0  0  0  0  0  0  0  0  0  
0  0  0  0  0  0  0  0  0  0  0  0  0  1  0  0  0  0  0  0  0  0  0  0  1  0  0  0  0  0  1  0  0  0  0  0  1  1  1  0  1  0  1  0  1  0  1  0  0  0  1  1  0  0  0  0  0  0  1  0  0  0  0  0  0  0  0  0  0  0  0  0  0  0  0  0  0  0  0  0  0  0  0  0  0  0  0  0  0  0  0  0  0  0  0  0  0  0  0  0  0  0  0  0  0  0  0  0  0  0  0  
0  0  0  0  0  0  0  0  0  0  0  0  0  1  0  0  0  0  0  0  0  0  0  0  0  0  0  0  0  0  1  0  0  0  0  0  1  1  0  1  0  0  1  0  1  0  0  0  0  0  0  0  0  0  0  0  0  0  0  0  0  0  0  0  0  0  0  0  0  0  0  0  0  0  0  0  0  0  0  0  0  0  0  0  0  0  0  0  0  0  0  0  0  0  0  0  0  0  0  0  0  0  0  0  0  0  0  0  0  0  0  
0  0  0  0  0  0  0  0  0  0  0  0  0  0  0  0  0  0  0  0  0  0  0  0  0  0  1  0  0  0  0  0  0  1  0  0  0  0  0  0  0  0  0  0  0  1  0  0  1  0  0  0  1  0  1  0  1  0  0  0  0  0  0  0  0  0  0  0  0  0  0  0  0  0  0  0  0  0  0  0  0  0  0  0  0  0  0  0  0  0  0  0  0  0  0  0  0  0  0  0  0  0  0  0  0  0  0  0  0  0  0  
0  0  0  0  0  0  0  0  0  0  0  0  0  1  0  0  0  0  0  0  0  0  0  0  0  0  0  0  0  0  1  0  0  0  0  0  0  1  0  1  1  0  0  0  1  0  0  0  0  0  0  1  0  0  0  0  0  0  1  0  0  0  0  0  0  0  0  0  0  0  0  0  0  0  1  1  0  0  0  1  0  0  0  0  1  0  0  0  0  0  0  0  0  0  0  0  0  0  0  0  0  0  0  0  0  0  0  0  0  0  0  
0  0  0  0  0  0  0  0  0  0  0  0  0  0  0  0  0  0  0  0  0  0  0  0  0  1  0  0  1  0  0  0  1  1  1  1  0  0  0  0  0  0  0  0  0  0  0  1  0  0  0  0  0  1  0  0  0  0  0  0  0  0  0  0  0  0  0  0  0  0  0  0  0  0  0  0  0  0  0  0  0  0  0  0  0  0  0  0  0  0  0  0  0  0  0  0  0  0  0  0  0  0  0  0  0  0  0  0  0  0  0  
0  0  0  0  0  0  0  0  0  0  0  0  0  1  0  0  0  0  0  0  0  0  0  0  0  0  0  0  0  0  1  0  0  0  0  0  1  1  0  1  1  0  1  0  0  0  0  0  0  0  0  0  0  0  0  0  0  0  0  0  0  0  0  0  0  0  0  0  0  0  0  0  0  0  0  0  0  0  0  0  0  0  0  0  0  0  0  0  0  0  0  0  0  0  0  0  0  0  0  0  0  0  0  0  0  0  0  0  0  0  0  
0  0  0  0  0  0  0  0  0  0  0  0  0  0  0  0  0  0  0  0  0  1  0  1  0  0  1  0  0  0  0  0  0  0  0  0  0  0  1  0  0  1  0  0  0  0  0  0  1  1  1  0  1  0  0  1  0  1  0  0  0  0  0  0  0  0  0  0  1  0  0  0  0  0  0  0  0  0  0  0  0  0  0  0  0  0  0  0  0  0  0  0  0  0  0  0  0  0  0  0  0  0  0  0  0  0  0  0  0  0  0  
0  0  0  0  0  0  0  0  0  0  0  0  0  0  0  0  0  0  0  0  0  1  0  0  1  0  0  0  0  0  0  0  0  0  0  0  0  0  1  1  0  0  0  0  0  0  0  0  0  1  1  1  0  0  0  0  0  0  1  0  0  0  0  0  0  0  0  0  0  0  0  0  0  0  0  0  0  0  0  0  0  0  0  0  0  0  0  0  0  0  0  0  0  0  0  0  0  0  0  0  0  0  0  0  0  0  0  0  0  0  0  
0  0  0  0  0  0  0  0  0  0  0  0  0  0  0  0  0  0  0  0  0  0  0  0  0  1  0  0  0  0  0  0  0  1  1  1  0  0  0  0  0  0  0  1  0  0  0  0  0  0  0  0  0  1  0  0  0  0  0  1  1  1  0  1  0  0  1  1  0  1  0  1  0  1  0  0  1  1  0  0  1  0  0  1  0  0  1  0  0  1  0  0  0  0  0  0  0  0  0  0  0  0  0  0  0  0  0  0  0  0  0  
0  0  0  0  0  0  0  0  0  0  0  0  0  0  0  0  0  0  0  0  0  0  0  0  0  0  1  0  0  0  0  0  0  1  0  0  0  0  0  0  0  1  0  0  0  1  0  0  0  0  0  0  1  0  1  0  0  0  0  0  0  0  0  0  0  0  0  0  0  0  0  0  0  0  0  0  0  0  0  0  0  0  0  0  0  0  0  0  0  0  0  0  0  0  0  0  0  0  0  0  0  0  0  0  0  0  0  0  0  0  0  
0  0  0  0  0  0  0  0  0  0  0  0  0  0  0  0  0  0  0  0  0  1  0  1  0  0  1  0  0  0  0  0  0  0  0  0  0  0  1  0  0  0  0  0  0  1  1  0  0  0  1  0  0  0  0  1  0  1  0  0  0  0  1  0  0  1  0  0  0  0  0  0  0  0  0  0  0  0  0  0  0  0  0  0  0  0  0  0  0  0  0  0  0  0  0  0  0  0  0  0  0  0  0  0  0  0  0  0  0  0  0  
0  0  0  0  0  0  0  0  0  0  0  0  0  0  0  0  0  0  0  0  0  1  0  0  1  0  0  0  0  0  0  0  0  0  0  0  0  0  1  1  0  0  0  0  0  1  1  0  0  1  0  1  0  0  0  1  0  1  1  0  0  0  1  0  0  1  0  0  0  0  1  0  0  0  1  0  0  0  0  0  0  0  0  0  0  0  0  0  0  0  0  0  0  0  0  0  0  0  0  0  0  0  0  0  0  0  0  0  0  0  0  
0  0  0  0  0  0  0  0  0  0  0  0  0  0  0  0  0  0  0  0  0  0  0  0  0  0  0  0  0  0  0  0  0  0  0  0  0  0  0  1  0  0  1  0  0  0  1  0  0  0  1  0  0  0  0  0  0  0  1  0  0  0  0  0  0  0  0  0  0  0  0  0  0  0  0  0  0  0  0  0  0  0  0  0  0  0  0  0  0  0  0  0  0  0  0  0  0  0  0  0  0  0  0  0  0  0  0  0  0  0  0  
0  0  0  0  0  0  0  0  0  0  0  0  0  0  0  0  0  0  0  0  0  0  0  0  0  0  1  0  0  0  0  0  0  1  0  0  0  0  0  0  0  1  0  0  0  1  0  0  1  0  0  0  0  0  1  1  1  1  0  0  0  1  0  1  1  0  0  1  0  0  0  0  1  0  0  0  0  0  0  0  0  0  0  0  0  0  0  0  0  0  0  0  0  0  0  0  0  0  0  0  0  0  0  0  0  0  0  0  0  0  0  
0  0  0  0  0  0  0  0  0  0  0  0  0  0  0  0  0  0  0  0  0  0  0  0  0  0  0  0  0  0  0  0  0  0  1  0  0  0  0  0  0  0  0  1  0  0  0  1  0  0  0  0  0  0  0  0  0  0  0  0  0  0  0  0  0  0  1  0  0  0  0  0  0  0  0  0  0  0  0  0  0  0  0  0  0  0  0  0  0  0  0  0  0  0  0  0  0  0  0  0  0  0  0  0  0  0  0  0  0  0  0  
0  0  0  0  0  0  0  0  0  0  0  0  0  0  0  0  0  0  0  0  0  0  0  0  0  0  1  0  0  0  0  0  0  1  0  0  0  0  0  0  0  1  0  0  0  0  0  0  1  0  0  0  1  0  0  0  1  0  0  0  0  1  0  1  1  0  0  0  0  0  0  0  0  0  0  0  0  0  0  0  0  0  0  0  0  0  0  0  0  0  0  0  0  0  0  0  0  0  0  0  0  0  0  0  0  0  0  0  0  0  0  
0  0  0  0  0  0  0  0  0  0  0  0  0  0  0  0  0  0  0  0  0  0  0  0  0  0  1  0  0  0  0  0  0  0  0  0  0  0  0  0  0  0  0  0  0  1  0  0  0  1  1  0  1  0  0  0  0  1  0  0  0  0  1  0  1  1  0  1  1  0  0  0  1  0  0  0  0  0  0  0  0  0  0  0  0  0  0  0  0  0  0  0  0  0  0  0  0  0  0  0  0  0  0  0  0  0  0  0  0  0  0  
0  0  0  0  0  0  0  0  0  0  0  0  0  0  0  0  0  0  0  0  0  0  0  0  0  0  0  0  0  0  0  0  0  1  0  0  0  0  0  0  0  1  0  0  0  0  0  0  0  0  0  0  1  0  1  0  0  1  0  0  1  1  0  1  1  0  0  1  0  0  0  0  0  0  0  0  0  0  0  0  0  0  0  0  0  0  0  0  0  0  0  0  0  0  0  0  0  0  0  0  0  0  0  0  0  0  0  0  0  0  0  
0  0  0  0  0  0  0  0  0  0  0  0  0  0  0  0  0  0  0  0  0  0  0  0  0  0  1  0  0  0  0  0  0  0  0  0  0  0  0  0  0  0  0  0  0  1  0  0  0  1  1  0  1  0  0  1  1  0  0  0  0  0  1  1  1  1  0  1  1  0  0  0  1  0  0  0  0  0  1  0  0  0  0  0  0  0  0  0  0  0  0  0  0  0  0  0  0  0  0  0  0  0  0  0  0  0  0  0  0  0  0  
0  0  0  0  0  0  0  0  0  0  0  0  0  0  0  0  0  0  0  0  0  0  0  0  0  0  0  0  0  0  0  0  0  0  0  0  0  0  0  1  0  0  1  0  0  0  1  0  0  0  1  1  0  0  0  0  0  0  0  0  0  0  0  0  0  1  0  0  0  0  1  0  0  0  1  1  0  0  0  1  0  0  1  0  0  0  0  0  0  0  0  0  0  0  0  0  0  0  0  0  0  0  0  0  0  0  0  0  0  0  0  
0  0  0  0  0  0  0  0  0  0  0  0  0  0  0  0  0  0  0  0  0  0  0  0  0  0  0  0  0  0  0  0  0  1  0  0  0  0  0  0  0  0  0  0  0  0  0  1  0  0  0  0  0  0  0  0  0  0  0  0  1  0  0  0  0  0  0  0  0  0  0  1  0  1  0  0  0  0  0  0  0  0  0  0  0  0  0  0  0  0  0  0  0  0  0  0  0  0  0  0  0  0  0  0  0  0  0  0  0  0  0  
0  0  0  0  0  0  0  0  0  0  0  0  0  0  0  0  0  0  0  0  0  0  0  0  0  0  0  0  0  0  0  0  0  1  0  0  0  0  0  0  0  0  0  0  0  0  0  1  0  0  0  0  0  0  0  0  1  0  0  1  0  1  0  1  0  0  0  0  0  1  0  0  0  0  0  0  0  0  0  0  0  0  0  0  0  0  0  0  0  0  0  0  0  0  0  0  0  0  0  0  0  0  0  0  0  0  0  0  0  0  0  
0  0  0  0  0  0  0  0  0  0  0  0  0  0  0  0  0  0  0  0  0  0  0  0  0  0  0  0  0  0  0  0  0  1  0  0  0  0  0  0  0  0  0  0  0  0  0  1  0  0  0  0  1  0  1  0  1  0  0  0  1  0  0  1  1  0  0  0  0  1  0  0  0  0  0  0  0  1  0  0  0  0  0  0  0  0  0  0  0  0  0  0  0  0  0  0  0  0  0  0  0  0  0  0  0  0  0  0  0  0  0  
0  0  0  0  0  0  0  0  0  0  0  0  0  0  0  0  0  0  0  0  0  0  0  0  0  0  0  0  0  0  0  0  0  0  0  0  0  0  0  0  0  0  0  0  0  0  0  0  0  1  1  0  0  0  0  1  0  1  0  0  0  0  0  0  0  1  0  0  1  0  1  0  0  0  0  0  0  0  0  0  0  0  0  0  0  0  0  0  0  0  0  0  0  0  0  0  0  0  0  0  0  0  0  0  0  0  0  0  0  0  0  
0  0  0  0  0  0  0  0  0  0  0  0  0  0  0  0  0  0  0  0  0  0  0  0  0  0  0  0  0  0  0  0  0  1  0  0  0  0  0  0  0  0  0  0  0  0  0  1  0  0  0  0  1  0  1  0  1  1  0  0  1  1  0  0  1  0  0  1  0  1  0  0  1  0  0  0  0  1  1  0  1  0  0  1  0  0  0  0  0  0  0  0  0  0  0  0  0  0  0  0  0  0  0  0  0  0  0  0  0  0  0  
0  0  0  0  0  0  0  0  0  0  0  0  0  0  0  0  0  0  0  0  0  0  0  0  0  0  1  0  0  0  0  0  0  0  0  0  0  0  0  0  0  0  0  0  0  0  0  0  0  0  0  0  1  0  1  1  1  1  0  0  0  1  0  1  0  0  0  1  1  0  0  0  1  0  0  0  0  0  1  0  0  0  0  0  0  0  0  0  0  0  0  0  0  0  0  0  0  0  0  0  0  0  0  0  0  0  0  0  0  0  0  
0  0  0  0  0  0  0  0  0  0  0  0  0  0  0  0  0  0  0  0  0  0  0  0  0  0  0  0  0  0  0  0  0  0  0  0  0  0  0  0  0  0  0  0  0  0  0  0  0  1  1  0  0  0  0  1  0  1  1  0  0  0  1  0  0  0  0  1  1  0  1  0  1  0  1  1  0  0  1  1  0  1  1  0  0  0  0  0  0  0  0  1  1  0  0  0  0  1  0  0  0  0  0  0  0  0  0  0  0  0  0  
0  0  0  0  0  0  0  0  0  0  0  0  0  0  0  0  0  0  0  0  0  0  0  0  0  0  0  0  0  0  0  0  0  0  0  0  0  0  0  0  0  0  0  0  0  0  0  1  0  0  0  0  0  1  0  0  0  0  0  0  0  0  0  0  0  0  0  0  0  0  0  1  0  1  0  0  1  0  0  0  0  0  0  0  0  1  0  0  0  0  0  0  0  0  0  0  0  0  0  0  0  0  0  0  0  0  0  0  0  0  0  
0  0  0  0  0  0  0  0  0  0  0  0  0  0  0  0  0  0  0  0  0  0  0  0  0  0  1  0  0  0  0  0  0  0  0  0  0  0  0  0  0  0  0  0  0  0  0  1  0  0  0  0  1  0  0  1  1  1  0  0  0  0  0  1  1  1  0  0  1  1  0  0  1  0  0  0  0  1  1  0  1  0  0  0  0  0  0  0  0  0  0  0  0  0  0  0  0  0  0  0  0  0  0  0  0  0  0  0  0  0  0  
0  0  0  0  0  0  0  0  0  0  0  0  0  0  0  0  0  0  0  0  0  0  0  0  0  0  0  0  0  0  0  0  0  0  0  0  0  0  0  0  0  0  0  0  0  1  0  0  0  0  0  0  0  0  0  1  0  1  0  0  0  0  1  0  1  1  0  1  0  0  0  0  1  0  0  0  0  0  0  0  0  1  0  0  0  0  0  0  0  0  0  0  0  0  0  0  0  0  0  0  0  0  0  0  0  0  0  0  0  0  0  
0  0  0  0  0  0  0  0  0  0  0  0  0  0  0  0  0  0  0  0  0  0  0  0  0  0  0  0  0  0  0  0  0  1  0  0  0  0  0  0  0  0  0  0  0  0  0  1  0  0  0  0  0  0  0  0  0  0  0  0  1  1  0  1  0  0  0  1  0  0  0  0  0  0  0  0  0  1  0  0  0  0  0  0  0  0  0  0  0  0  0  0  0  0  0  0  0  0  0  0  0  0  0  0  0  0  0  0  0  0  0  
0  0  0  0  0  0  0  0  0  0  0  0  0  0  0  0  0  0  0  0  0  0  0  0  0  0  0  0  0  0  0  0  0  0  0  0  0  0  0  0  0  0  0  0  0  0  0  0  0  0  1  0  0  0  0  0  0  0  1  0  0  0  1  0  0  1  0  0  0  0  0  0  0  0  1  1  0  0  0  1  0  0  1  0  0  0  0  0  0  0  0  0  0  0  0  0  0  0  0  0  0  0  0  0  0  0  0  0  0  0  0  
0  0  0  0  0  0  0  0  0  0  0  0  0  0  0  0  0  0  0  0  0  0  0  0  0  0  0  0  0  0  0  0  0  0  0  0  0  0  0  0  0  0  0  0  0  0  0  1  0  0  0  0  0  0  0  0  0  0  0  1  0  0  0  0  0  0  1  0  0  0  0  0  0  1  0  0  1  0  0  0  0  0  0  0  0  1  0  0  0  0  0  0  0  0  0  0  0  0  0  0  0  0  0  0  0  0  0  0  0  0  0  
0  0  0  0  0  0  0  0  0  0  0  0  0  0  0  0  0  0  0  0  0  0  0  0  0  0  0  0  0  0  0  0  0  0  0  0  0  0  0  0  0  0  0  0  0  0  0  0  0  0  0  0  1  0  0  1  0  1  0  0  0  0  0  1  1  1  0  1  1  0  0  0  0  0  0  0  0  0  1  0  1  1  0  0  0  0  0  1  0  0  0  1  1  0  0  1  1  1  0  0  0  0  0  0  0  0  0  0  0  0  0  
0  0  0  0  0  0  0  0  0  0  0  0  0  0  0  0  0  0  0  0  0  0  0  0  0  0  0  0  0  0  0  0  0  0  0  0  0  0  0  0  0  0  0  0  0  0  0  1  0  0  0  0  0  0  0  0  0  0  0  1  0  0  0  0  0  0  1  0  0  0  0  1  0  0  0  0  1  0  0  0  0  0  0  1  0  1  1  0  0  1  0  0  0  0  0  0  0  0  1  0  1  0  0  1  1  0  0  0  0  0  0  
0  0  0  0  0  0  0  0  0  0  0  0  0  0  0  0  0  0  0  0  0  0  0  0  0  0  0  0  0  0  0  0  0  0  0  0  0  0  0  0  0  0  1  0  0  0  0  0  0  0  1  0  0  0  0  0  0  0  1  0  0  0  0  0  0  1  0  0  0  0  1  0  0  0  0  1  0  0  0  1  0  0  1  0  0  0  0  0  0  0  0  0  0  0  0  0  0  0  0  0  0  0  0  0  0  0  0  0  0  0  0  
0  0  0  0  0  0  0  0  0  0  0  0  0  0  0  0  0  0  0  0  0  0  0  0  0  0  0  0  0  0  0  0  0  0  0  0  0  0  0  0  0  0  1  0  0  0  0  0  0  0  0  0  0  0  0  0  0  0  1  0  0  0  0  0  0  1  0  0  0  0  1  0  0  0  1  0  0  0  0  1  0  0  1  0  1  0  0  0  1  0  0  0  0  1  1  0  0  0  0  1  0  1  0  0  0  0  0  0  0  0  0  
0  0  0  0  0  0  0  0  0  0  0  0  0  0  0  0  0  0  0  0  0  0  0  0  0  0  0  0  0  0  0  0  0  0  0  0  0  0  0  0  0  0  0  0  0  0  0  1  0  0  0  0  0  0  0  0  0  0  0  0  0  0  0  0  0  0  1  0  0  0  0  1  0  1  0  0  0  0  0  0  0  0  0  0  0  1  0  0  0  0  0  0  0  0  0  0  0  0  0  0  0  0  0  0  0  0  0  0  0  0  0  
0  0  0  0  0  0  0  0  0  0  0  0  0  0  0  0  0  0  0  0  0  0  0  0  0  0  0  0  0  0  0  0  0  0  0  0  0  0  0  0  0  0  0  0  0  0  0  1  0  0  0  0  0  0  0  0  0  0  0  0  0  1  0  1  0  0  0  1  0  1  0  0  0  0  0  0  0  0  1  0  1  0  0  1  0  0  0  1  0  1  1  0  0  0  0  1  0  0  0  0  0  0  0  0  0  0  0  0  0  0  0  
0  0  0  0  0  0  0  0  0  0  0  0  0  0  0  0  0  0  0  0  0  0  0  0  0  0  0  0  0  0  0  0  0  0  0  0  0  0  0  0  0  0  0  0  0  0  0  0  0  0  0  0  0  0  0  0  0  1  0  0  0  0  0  1  1  1  0  1  0  0  0  0  1  0  0  0  0  1  0  0  1  1  0  1  0  0  0  1  0  1  1  0  0  0  0  1  1  0  0  0  0  0  0  0  0  0  0  0  0  0  0  
0  0  0  0  0  0  0  0  0  0  0  0  0  0  0  0  0  0  0  0  0  0  0  0  0  0  0  0  0  0  0  0  0  0  0  0  0  0  0  0  0  0  1  0  0  0  0  0  0  0  0  0  0  0  0  0  0  0  1  0  0  0  0  0  0  1  0  0  0  0  1  0  0  0  1  1  0  0  0  0  0  0  1  0  1  0  0  0  1  0  0  1  1  1  1  0  0  0  0  1  0  0  0  0  0  0  0  0  0  0  0  
0  0  0  0  0  0  0  0  0  0  0  0  0  0  0  0  0  0  0  0  0  0  0  0  0  0  0  0  0  0  0  0  0  0  0  0  0  0  0  0  0  0  0  0  0  0  0  1  0  0  0  0  0  0  0  0  0  0  0  0  0  0  0  1  0  0  0  1  0  0  0  0  1  0  0  0  0  1  1  0  0  0  0  1  0  0  0  0  0  0  1  0  0  0  0  0  0  0  0  0  0  0  0  0  0  0  0  0  0  0  0  
0  0  0  0  0  0  0  0  0  0  0  0  0  0  0  0  0  0  0  0  0  0  0  0  0  0  0  0  0  0  0  0  0  0  0  0  0  0  0  0  0  0  0  0  0  0  0  0  0  0  0  0  0  0  0  0  0  0  0  0  0  0  0  0  0  1  0  0  1  0  0  0  1  0  0  0  0  0  1  0  0  0  0  0  0  0  0  1  0  0  0  0  0  0  0  0  0  0  0  0  0  0  0  0  0  0  0  0  0  0  0  
0  0  0  0  0  0  0  0  0  0  0  0  0  0  0  0  0  0  0  0  0  0  0  0  0  0  0  0  0  0  0  0  0  0  0  0  0  0  0  0  0  0  0  0  0  0  0  0  0  0  0  0  0  0  0  0  0  0  1  0  0  0  0  0  0  1  0  0  0  0  1  0  0  0  1  1  0  0  0  1  0  0  0  0  0  0  0  0  0  0  0  0  0  0  0  0  0  0  0  0  0  0  0  0  0  0  0  0  0  0  0  
0  0  0  0  0  0  0  0  0  0  0  0  0  0  0  0  0  0  0  0  0  0  0  0  0  0  0  0  0  0  0  0  0  0  0  0  0  0  0  0  0  0  0  0  0  0  0  1  0  0  0  0  0  0  0  0  0  0  0  0  0  0  0  1  0  0  0  0  0  0  0  0  0  1  0  0  0  1  1  0  1  0  0  0  0  0  1  0  0  1  1  0  0  0  0  0  0  0  0  0  0  0  0  0  0  0  0  0  0  0  0  
0  0  0  0  0  0  0  0  0  0  0  0  0  0  0  0  0  0  0  0  0  0  0  0  0  0  0  0  0  0  0  0  0  0  0  0  0  0  0  0  0  0  1  0  0  0  0  0  0  0  0  0  0  0  0  0  0  0  0  0  0  0  0  0  0  0  0  0  0  0  0  0  0  0  0  1  0  0  0  1  0  0  0  0  0  0  0  0  1  0  0  0  0  1  1  0  0  0  0  1  0  1  1  0  0  1  0  0  0  0  0  
0  0  0  0  0  0  0  0  0  0  0  0  0  0  0  0  0  0  0  0  0  0  0  0  0  0  0  0  0  0  0  0  0  0  0  0  0  0  0  0  0  0  0  0  0  0  0  0  0  0  0  0  0  0  0  0  0  0  0  0  0  0  0  0  0  0  1  0  0  0  0  1  0  1  0  0  1  0  0  0  0  0  0  0  0  0  0  0  0  0  0  0  0  0  0  0  0  0  1  0  1  0  0  1  1  0  0  0  0  0  0  
0  0  0  0  0  0  0  0  0  0  0  0  0  0  0  0  0  0  0  0  0  0  0  0  0  0  0  0  0  0  0  0  0  0  0  0  0  0  0  0  0  0  0  0  0  0  0  1  0  0  0  0  0  0  0  0  0  0  0  0  0  0  0  0  0  0  0  0  0  0  0  0  0  1  0  0  0  0  0  0  0  0  0  1  0  0  0  0  0  1  0  0  0  0  0  0  0  0  0  0  0  0  0  0  0  0  0  0  0  0  0  
0  0  0  0  0  0  0  0  0  0  0  0  0  0  0  0  0  0  0  0  0  0  0  0  0  0  0  0  0  0  0  0  0  0  0  0  0  0  0  0  0  0  0  0  0  0  0  0  0  0  0  0  0  0  0  0  0  0  0  0  0  0  0  0  0  0  0  0  0  0  0  0  1  0  0  0  0  1  1  0  0  1  0  0  0  0  0  0  0  1  1  0  0  0  0  1  1  1  0  0  0  0  0  0  0  0  0  0  0  0  0  
0  0  0  0  0  0  0  0  0  0  0  0  0  0  0  0  0  0  0  0  0  0  0  0  0  0  0  0  0  0  0  0  0  0  0  0  0  0  0  0  0  0  0  0  0  0  0  0  0  0  0  0  0  0  0  0  0  0  0  0  0  0  0  0  0  0  0  0  0  0  0  0  0  0  0  1  0  0  0  1  0  0  0  0  1  0  0  0  0  0  0  0  0  1  1  0  0  0  0  1  0  0  0  0  0  0  0  0  0  0  0  
0  0  0  0  0  0  0  0  0  0  0  0  0  0  0  0  0  0  0  0  0  0  0  0  0  0  0  0  0  0  0  0  0  0  0  0  0  0  0  0  0  0  0  0  0  0  0  1  0  0  0  0  0  0  0  0  0  0  0  0  0  0  0  0  0  0  0  0  0  0  0  0  0  1  0  0  0  1  1  0  0  0  0  1  0  0  1  1  0  0  1  0  0  0  0  1  1  1  1  0  0  0  0  1  1  0  1  0  0  0  0  
0  0  0  0  0  0  0  0  0  0  0  0  0  0  0  0  0  0  0  0  0  0  0  0  0  0  0  0  0  0  0  0  0  0  0  0  0  0  0  0  0  0  0  0  0  0  0  0  0  0  0  0  0  0  0  0  0  0  0  0  0  0  0  0  0  0  0  0  0  0  0  0  0  0  0  0  0  1  1  0  1  0  0  1  0  0  0  1  0  1  0  0  0  0  0  1  1  0  0  0  0  0  0  0  0  0  0  0  0  0  0  
0  0  0  0  0  0  0  0  0  0  0  0  0  0  0  0  0  0  0  0  0  0  0  0  0  0  0  0  0  0  0  0  0  0  0  0  0  0  0  0  0  0  0  0  0  0  0  0  0  0  0  0  0  0  0  0  0  0  0  0  0  0  0  0  0  1  0  0  0  0  0  0  1  0  0  0  0  0  0  1  0  0  0  0  0  0  0  0  0  0  0  0  1  1  1  0  0  1  0  1  0  0  0  0  0  0  0  0  0  0  0  
0  0  0  0  0  0  0  0  0  0  0  0  0  0  0  0  0  0  0  0  0  0  0  0  0  0  0  0  0  0  0  0  0  0  0  0  0  0  0  0  0  0  0  0  0  0  0  0  0  0  0  0  0  0  0  0  0  0  0  0  0  0  0  0  0  1  0  0  0  0  0  0  1  0  0  0  0  0  0  1  0  0  0  0  0  0  0  0  0  0  0  1  0  0  0  0  1  1  0  0  0  0  0  0  0  0  0  0  0  0  0  
0  0  0  0  0  0  0  0  0  0  0  0  0  0  0  0  0  0  0  0  0  0  0  0  0  0  0  0  0  0  0  0  0  0  0  0  0  0  0  0  0  0  0  0  0  0  0  0  0  0  0  0  0  0  0  0  0  0  0  0  0  0  0  0  0  0  0  0  0  0  0  0  0  0  0  1  0  0  0  1  0  0  0  0  1  0  0  0  1  0  0  1  0  0  1  0  0  0  0  1  0  1  0  0  0  1  0  0  0  0  0  
0  0  0  0  0  0  0  0  0  0  0  0  0  0  0  0  0  0  0  0  0  0  0  0  0  0  0  0  0  0  0  0  0  0  0  0  0  0  0  0  0  0  0  0  0  0  0  0  0  0  0  0  0  0  0  0  0  0  0  0  0  0  0  0  0  0  0  0  0  0  0  0  0  0  0  1  0  0  0  1  0  0  0  0  1  0  0  0  1  0  0  1  0  1  0  0  0  0  0  1  0  1  1  0  0  1  0  1  0  1  0  
0  0  0  0  0  0  0  0  0  0  0  0  0  0  0  0  0  0  0  0  0  0  0  0  0  0  0  0  0  0  0  0  0  0  0  0  0  0  0  0  0  0  0  0  0  0  0  0  0  0  0  0  0  0  0  0  0  0  0  0  0  0  0  0  0  0  0  0  0  0  0  0  1  0  0  0  0  1  1  0  0  0  0  0  0  0  0  1  0  1  1  0  0  0  0  0  1  1  0  0  0  0  0  0  0  0  0  0  0  0  0  
0  0  0  0  0  0  0  0  0  0  0  0  0  0  0  0  0  0  0  0  0  0  0  0  0  0  0  0  0  0  0  0  0  0  0  0  0  0  0  0  0  0  0  0  0  0  0  0  0  0  0  0  0  0  0  0  0  0  0  0  0  0  0  0  0  0  0  0  0  0  0  0  1  0  0  0  0  0  1  0  0  0  0  0  0  0  0  1  0  1  1  0  1  0  0  1  0  1  0  0  0  0  0  0  0  0  1  0  1  0  0  
0  0  0  0  0  0  0  0  0  0  0  0  0  0  0  0  0  0  0  0  0  0  0  0  0  0  0  0  0  0  0  0  0  0  0  0  0  0  0  0  0  0  0  0  0  0  0  0  0  0  0  0  0  0  0  0  0  0  0  0  0  0  0  0  0  1  0  0  0  0  0  0  1  0  0  0  0  0  0  0  0  0  0  0  0  0  0  1  0  1  0  1  1  0  0  1  1  0  0  1  0  0  0  0  0  0  1  0  1  0  0  
0  0  0  0  0  0  0  0  0  0  0  0  0  0  0  0  0  0  0  0  0  0  0  0  0  0  0  0  0  0  0  0  0  0  0  0  0  0  0  0  0  0  0  0  0  0  0  0  0  0  0  0  0  0  0  0  0  0  0  0  0  0  0  0  0  0  0  0  0  0  0  0  0  1  0  0  0  0  0  0  0  0  0  0  0  1  0  0  0  1  0  0  0  0  0  0  0  0  0  0  1  0  0  1  1  0  0  0  0  0  0  
0  0  0  0  0  0  0  0  0  0  0  0  0  0  0  0  0  0  0  0  0  0  0  0  0  0  0  0  0  0  0  0  0  0  0  0  0  0  0  0  0  0  0  0  0  0  0  0  0  0  0  0  0  0  0  0  0  0  0  0  0  0  0  0  0  0  0  0  0  0  0  0  0  0  0  1  0  0  0  1  0  0  0  0  1  0  0  0  1  0  0  1  0  1  1  0  0  1  0  0  0  1  1  0  0  1  0  1  0  1  0  
0  0  0  0  0  0  0  0  0  0  0  0  0  0  0  0  0  0  0  0  0  0  0  0  0  0  0  0  0  0  0  0  0  0  0  0  0  0  0  0  0  0  0  0  0  0  0  0  0  0  0  0  0  0  0  0  0  0  0  0  0  0  0  0  0  0  0  0  0  0  0  0  0  1  0  0  0  0  0  0  0  0  0  0  0  1  0  0  0  0  0  0  0  0  0  0  0  0  1  0  0  0  0  1  1  0  0  0  0  0  0  
0  0  0  0  0  0  0  0  0  0  0  0  0  0  0  0  0  0  0  0  0  0  0  0  0  0  0  0  0  0  0  0  0  0  0  0  0  0  0  0  0  0  0  0  0  0  0  0  0  0  0  0  0  0  0  0  0  0  0  0  0  0  0  0  0  0  0  0  0  0  0  0  0  0  0  1  0  0  0  0  0  0  0  0  1  0  0  0  0  0  0  0  0  1  1  0  0  0  0  1  0  0  1  0  0  1  0  1  0  1  0  
0  0  0  0  0  0  0  0  0  0  0  0  0  0  0  0  0  0  0  0  0  0  0  0  0  0  0  0  0  0  0  0  0  0  0  0  0  0  0  0  0  0  0  0  0  0  0  0  0  0  0  0  0  0  0  0  0  0  0  0  0  0  0  0  0  0  0  0  0  0  0  0  0  0  0  0  0  0  0  0  0  0  0  0  1  0  0  0  0  0  0  0  0  0  1  0  0  0  0  1  0  1  0  0  0  1  0  1  0  1  0  
0  0  0  0  0  0  0  0  0  0  0  0  0  0  0  0  0  0  0  0  0  0  0  0  0  0  0  0  0  0  0  0  0  0  0  0  0  0  0  0  0  0  0  0  0  0  0  0  0  0  0  0  0  0  0  0  0  0  0  0  0  0  0  0  0  0  0  0  0  0  0  0  0  1  0  0  0  0  0  0  0  0  0  0  0  1  0  0  0  1  0  0  0  0  0  0  0  0  1  0  1  0  0  0  1  0  0  0  0  0  0  
0  0  0  0  0  0  0  0  0  0  0  0  0  0  0  0  0  0  0  0  0  0  0  0  0  0  0  0  0  0  0  0  0  0  0  0  0  0  0  0  0  0  0  0  0  0  0  0  0  0  0  0  0  0  0  0  0  0  0  0  0  0  0  0  0  0  0  0  0  0  0  0  0  1  0  0  0  0  0  0  0  0  0  0  0  1  0  0  0  1  0  0  0  0  0  0  0  0  1  0  1  0  0  1  0  0  0  0  0  0  0  
0  0  0  0  0  0  0  0  0  0  0  0  0  0  0  0  0  0  0  0  0  0  0  0  0  0  0  0  0  0  0  0  0  0  0  0  0  0  0  0  0  0  0  0  0  0  0  0  0  0  0  0  0  0  0  0  0  0  0  0  0  0  0  0  0  0  0  0  0  0  0  0  0  0  0  0  0  0  0  0  0  0  0  0  1  0  0  0  0  0  0  0  0  1  1  0  0  0  0  1  0  1  1  0  0  0  0  1  0  1  0  
0  0  0  0  0  0  0  0  0  0  0  0  0  0  0  0  0  0  0  0  0  0  0  0  0  0  0  0  0  0  0  0  0  0  0  0  0  0  0  0  0  0  0  0  0  0  0  0  0  0  0  0  0  0  0  0  0  0  0  0  0  0  0  0  0  0  0  0  0  0  0  0  0  0  0  0  0  0  0  0  0  0  0  0  0  0  0  0  0  1  0  0  0  0  0  0  1  1  0  0  0  0  0  0  0  0  0  0  1  0  0  
0  0  0  0  0  0  0  0  0  0  0  0  0  0  0  0  0  0  0  0  0  0  0  0  0  0  0  0  0  0  0  0  0  0  0  0  0  0  0  0  0  0  0  0  0  0  0  0  0  0  0  0  0  0  0  0  0  0  0  0  0  0  0  0  0  0  0  0  0  0  0  0  0  0  0  0  0  0  0  0  0  0  0  0  0  0  0  0  0  0  0  0  0  0  1  0  0  0  0  1  0  1  1  0  0  1  0  0  0  1  0  
0  0  0  0  0  0  0  0  0  0  0  0  0  0  0  0  0  0  0  0  0  0  0  0  0  0  0  0  0  0  0  0  0  0  0  0  0  0  0  0  0  0  0  0  0  0  0  0  0  0  0  0  0  0  0  0  0  0  0  0  0  0  0  0  0  0  0  0  0  0  0  0  0  0  0  0  0  0  0  0  0  0  0  0  0  0  0  0  0  0  0  0  0  0  0  0  1  1  0  0  0  0  0  0  0  0  1  0  0  0  0  
0  0  0  0  0  0  0  0  0  0  0  0  0  0  0  0  0  0  0  0  0  0  0  0  0  0  0  0  0  0  0  0  0  0  0  0  0  0  0  0  0  0  0  0  0  0  0  0  0  0  0  0  0  0  0  0  0  0  0  0  0  0  0  0  0  0  0  0  0  0  0  0  0  0  0  0  0  0  0  0  0  0  0  0  0  0  0  0  0  0  0  0  0  0  1  0  0  0  0  1  0  1  1  0  0  1  0  1  0  0  0  
0  0  0  0  0  0  0  0  0  0  0  0  0  0  0  0  0  0  0  0  0  0  0  0  0  0  0  0  0  0  0  0  0  0  0  0  0  0  0  0  0  0  0  0  0  0  0  0  0  0  0  0  0  0  0  0  0  0  0  0  0  0  0  0  0  0  0  0  0  0  0  0  0  0  0  0  0  0  0  0  0  0  0  0  0  0  0  0  0  0  0  0  0  0  0  0  0  0  0  0  0  0  0  0  0  0  0  0  0  0  0  
Grain to OP assignments:
0  3  4  2  0  3  6  4  1  2  3  1  5  0  2  0  1  2  4  0  0  3  1  1  8  6  4  1  4  0  4  5  2  2  1  3  2  2  5  6  1  0  5  0  3  6  2  7  3  0  7  0  7  2  1  1  6  2  1  0  1  4  4  5  3  5  0  8  0  0  3  2  4  4  0  6  1  6  1  2  0  2  4  2  0  3  0  7  4  3  4  0  3  1  3  0  5  1  1  5  0  4  1  5  2  2  2  0  0  6  0  

Finished inside of GrainTracker


Time Step 0, time = 0

Postprocessor Values:
+----------------+----------------+----------------+----------------+----------------+----------------+
| time           | DOFs           | dt             | grain_tracker  | n_elements     | n_nodes        |
+----------------+----------------+----------------+----------------+----------------+----------------+
|   0.000000e+00 |   0.000000e+00 |   0.000000e+00 |   1.110000e+02 |   4.096000e+03 |   4.225000e+03 |
+----------------+----------------+----------------+----------------+----------------+----------------+


Time Step 1, time = 10, dt = 10
 0 Nonlinear |R| = [32m4.150538e+05[39m
      0 Linear |R| = [32m4.150538e+05[39m
      1 Linear |R| = [32m5.203598e+04[39m
      2 Linear |R| = [32m1.084925e+04[39m
      3 Linear |R| = [32m3.365671e+03[39m
      4 Linear |R| = [32m2.381731e+03[39m
      5 Linear |R| = [32m8.873385e+02[39m
      6 Linear |R| = [32m4.686777e+02[39m
      7 Linear |R| = [32m1.765661e+02[39m
      8 Linear |R| = [32m8.548666e+01[39m
      9 Linear |R| = [32m4.910281e+01[39m
     10 Linear |R| = [32m2.883808e+01[39m
 1 Nonlinear |R| = [32m1.728155e+04[39m
      0 Linear |R| = [32m1.728155e+04[39m
      1 Linear |R| = [32m4.722028e+03[39m
      2 Linear |R| = [32m1.132884e+03[39m
      3 Linear |R| = [32m3.031243e+02[39m
      4 Linear |R| = [32m1.015837e+02[39m
      5 Linear |R| = [32m3.477654e+01[39m
      6 Linear |R| = [32m1.749089e+01[39m
      7 Linear |R| = [32m1.095697e+01[39m
      8 Linear |R| = [32m7.196307e+00[39m
      9 Linear |R| = [32m5.408029e+00[39m
     10 Linear |R| = [32m4.052574e+00[39m
     11 Linear |R| = [32m2.752979e+00[39m
     12 Linear |R| = [32m1.580609e+00[39m
 2 Nonlinear |R| = [32m5.710160e+02[39m
      0 Linear |R| = [32m5.710160e+02[39m
      1 Linear |R| = [32m2.062023e+02[39m
      2 Linear |R| = [32m7.721717e+01[39m
      3 Linear |R| = [32m2.219386e+01[39m
      4 Linear |R| = [32m1.035415e+01[39m
      5 Linear |R| = [32m5.465826e+00[39m
      6 Linear |R| = [32m3.092736e+00[39m
      7 Linear |R| = [32m1.708942e+00[39m
      8 Linear |R| = [32m1.049024e+00[39m
      9 Linear |R| = [32m5.701618e-01[39m
     10 Linear |R| = [32m2.815155e-01[39m
     11 Linear |R| = [32m1.457816e-01[39m
     12 Linear |R| = [32m8.293186e-02[39m
     13 Linear |R| = [32m4.667531e-02[39m
 3 Nonlinear |R| = [32m3.435590e+01[39m
      0 Linear |R| = [32m3.435590e+01[39m
      1 Linear |R| = [32m2.201362e+01[39m
      2 Linear |R| = [32m1.315466e+01[39m
      3 Linear |R| = [32m5.609630e+00[39m
      4 Linear |R| = [32m3.213136e+00[39m
      5 Linear |R| = [32m1.916055e+00[39m
      6 Linear |R| = [32m1.042496e+00[39m
      7 Linear |R| = [32m6.171999e-01[39m
      8 Linear |R| = [32m3.768064e-01[39m
      9 Linear |R| = [32m2.019925e-01[39m
     10 Linear |R| = [32m1.091167e-01[39m
     11 Linear |R| = [32m6.534820e-02[39m
     12 Linear |R| = [32m3.550347e-02[39m
     13 Linear |R| = [32m1.895171e-02[39m
     14 Linear |R| = [32m9.991632e-03[39m
     15 Linear |R| = [32m5.428870e-03[39m
     16 Linear |R| = [32m3.219451e-03[39m
 4 Nonlinear |R| = [32m1.765475e+01[39m
      0 Linear |R| = [32m1.765475e+01[39m
      1 Linear |R| = [32m9.763614e+00[39m
      2 Linear |R| = [32m5.202712e+00[39m
      3 Linear |R| = [32m2.223117e+00[39m
      4 Linear |R| = [32m1.237720e+00[39m
      5 Linear |R| = [32m5.978957e-01[39m
      6 Linear |R| = [32m2.638452e-01[39m
      7 Linear |R| = [32m1.473643e-01[39m
      8 Linear |R| = [32m7.383126e-02[39m
      9 Linear |R| = [32m4.043470e-02[39m
     10 Linear |R| = [32m2.376671e-02[39m
     11 Linear |R| = [32m1.437884e-02[39m
     12 Linear |R| = [32m8.269774e-03[39m
     13 Linear |R| = [32m4.627819e-03[39m
     14 Linear |R| = [32m2.670953e-03[39m
     15 Linear |R| = [32m1.420263e-03[39m
 5 Nonlinear |R| = [32m2.785144e+00[39m
      0 Linear |R| = [32m2.785144e+00[39m
      1 Linear |R| = [32m1.998595e+00[39m
      2 Linear |R| = [32m1.182153e+00[39m
      3 Linear |R| = [32m4.708589e-01[39m
      4 Linear |R| = [32m3.110784e-01[39m
      5 Linear |R| = [32m1.283033e-01[39m
      6 Linear |R| = [32m5.638836e-02[39m
      7 Linear |R| = [32m2.519558e-02[39m
      8 Linear |R| = [32m1.213918e-02[39m
      9 Linear |R| = [32m5.956136e-03[39m
     10 Linear |R| = [32m2.950245e-03[39m
     11 Linear |R| = [32m1.564122e-03[39m
     12 Linear |R| = [32m7.480274e-04[39m
     13 Linear |R| = [32m3.276620e-04[39m
     14 Linear |R| = [32m1.621603e-04[39m
 6 Nonlinear |R| = [32m9.749701e-02[39m
      0 Linear |R| = [32m9.749701e-02[39m
      1 Linear |R| = [32m8.332676e-02[39m
      2 Linear |R| = [32m5.371907e-02[39m
      3 Linear |R| = [32m2.198953e-02[39m
      4 Linear |R| = [32m1.450721e-02[39m
      5 Linear |R| = [32m5.825016e-03[39m
      6 Linear |R| = [32m2.691762e-03[39m
      7 Linear |R| = [32m1.195545e-03[39m
      8 Linear |R| = [32m5.283183e-04[39m
      9 Linear |R| = [32m2.244003e-04[39m
     10 Linear |R| = [32m1.037064e-04[39m
     11 Linear |R| = [32m5.016487e-05[39m
     12 Linear |R| = [32m2.771381e-05[39m
     13 Linear |R| = [32m1.320764e-05[39m
     14 Linear |R| = [32m6.466660e-06[39m
 7 Nonlinear |R| = [32m1.848645e-04[39m
[32m Solve Converged![39m

Grain Tracker Status:
Grains active index 0: 25 -> 25
Grains active index 1: 18 -> 18
Grains active index 2: 18 -> 18
Grains active index 3: 13 -> 14++
Grains active index 4: 14 -> 14
Grains active index 5: 9 -> 10++
Grains active index 6: 8 -> 8
Grains active index 7: 4 -> 4
Grains active index 8: 2 -> 2
Grains active index 9: 0 -> 0

[33mSplit Grain Detected #21 (variable index: 3)
[39m[33mSplit Grain Detected #103 (variable index: 5)
[39m[33mGrain #34 intersects Grain #22 (variable index: 1)
[39m[32m- Depth 0: Remapping grain #34 from variable index 1 to 9 which currently contains zero grains.

[39mFinished inside of GrainTracker


Outlier Variable Residual Norms:
  disp_x: [33m1.036081e-04[39m
  disp_y: [33m1.531020e-04[39m

Postprocessor Values:
+----------------+----------------+----------------+----------------+----------------+----------------+
| time           | DOFs           | dt             | grain_tracker  | n_elements     | n_nodes        |
+----------------+----------------+----------------+----------------+----------------+----------------+
|   0.000000e+00 |   0.000000e+00 |   0.000000e+00 |   1.110000e+02 |   4.096000e+03 |   4.225000e+03 |
|   1.000000e+01 |   9.998100e+04 |   1.000000e+01 |   1.130000e+02 |   4.096000e+03 |   4.225000e+03 |
+----------------+----------------+----------------+----------------+----------------+----------------+


Time Step 2, time = 20, dt = 10
 0 Nonlinear |R| = [32m3.227676e+03[39m
      0 Linear |R| = [32m3.227676e+03[39m
      1 Linear |R| = [33m3.126672e+03[39m
      2 Linear |R| = [33m3.007982e+03[39m
      3 Linear |R| = [33m3.007735e+03[39m
      4 Linear |R| = [33m3.002821e+03[39m
      5 Linear |R| = [33m3.001807e+03[39m
      6 Linear |R| = [33m2.918271e+03[39m
      7 Linear |R| = [33m2.917379e+03[39m
      8 Linear |R| = [33m2.784213e+03[39m
      9 Linear |R| = [33m2.766989e+03[39m
     10 Linear |R| = [33m2.737647e+03[39m
     11 Linear |R| = [33m2.691295e+03[39m
     12 Linear |R| = [33m2.683857e+03[39m
     13 Linear |R| = [33m2.612568e+03[39m
     14 Linear |R| = [33m2.514278e+03[39m
     15 Linear |R| = [33m2.508488e+03[39m
     16 Linear |R| = [33m2.492852e+03[39m
     17 Linear |R| = [33m2.460490e+03[39m
     18 Linear |R| = [32m2.306226e+03[39m
     19 Linear |R| = [33m2.262151e+03[39m
     20 Linear |R| = [33m2.241992e+03[39m
  Linear solve did not converge due to DIVERGED_ITS iterations 20
 1 Nonlinear |R| = [32m2.611353e+03[39m
      0 Linear |R| = [32m2.611353e+03[39m
      1 Linear |R| = [33m2.607936e+03[39m
      2 Linear |R| = [33m2.542785e+03[39m
      3 Linear |R| = [33m2.482820e+03[39m
      4 Linear |R| = [33m2.476283e+03[39m
      5 Linear |R| = [33m2.390576e+03[39m
      6 Linear |R| = [33m2.381196e+03[39m
      7 Linear |R| = [33m2.308249e+03[39m
      8 Linear |R| = [33m2.307724e+03[39m
      9 Linear |R| = [33m2.285993e+03[39m
     10 Linear |R| = [33m2.270956e+03[39m
     11 Linear |R| = [33m2.248444e+03[39m
     12 Linear |R| = [33m2.243588e+03[39m
     13 Linear |R| = [33m2.233057e+03[39m
     14 Linear |R| = [33m2.224536e+03[39m
     15 Linear |R| = [33m2.222071e+03[39m
     16 Linear |R| = [33m2.221381e+03[39m
     17 Linear |R| = [33m2.220787e+03[39m
     18 Linear |R| = [33m2.214425e+03[39m
     19 Linear |R| = [33m2.185731e+03[39m
     20 Linear |R| = [33m2.183904e+03[39m
  Linear solve did not converge due to DIVERGED_ITS iterations 20
 2 Nonlinear |R| = [33m2.611342e+03[39m
      0 Linear |R| = [32m2.611342e+03[39m
      1 Linear |R| = [33m2.606965e+03[39m
      2 Linear |R| = [33m2.546140e+03[39m
      3 Linear |R| = [33m2.537367e+03[39m
      4 Linear |R| = [33m2.526222e+03[39m
      5 Linear |R| = [33m2.407811e+03[39m
      6 Linear |R| = [33m2.402361e+03[39m
      7 Linear |R| = [33m2.377903e+03[39m
      8 Linear |R| = [33m2.375657e+03[39m
      9 Linear |R| = [33m2.355647e+03[39m
     10 Linear |R| = [33m2.349086e+03[39m
     11 Linear |R| = [33m2.303302e+03[39m
     12 Linear |R| = [33m2.288875e+03[39m
     13 Linear |R| = [33m2.281845e+03[39m
     14 Linear |R| = [33m2.277014e+03[39m
     15 Linear |R| = [33m2.276415e+03[39m
     16 Linear |R| = [32m2.140693e+03[39m
     17 Linear |R| = [33m2.140458e+03[39m
     18 Linear |R| = [33m2.139809e+03[39m
     19 Linear |R| = [33m2.101982e+03[39m
     20 Linear |R| = [33m2.072970e+03[39m
  Linear solve did not converge due to DIVERGED_ITS iterations 20
 3 Nonlinear |R| = [33m2.611342e+03[39m
      0 Linear |R| = [32m2.611342e+03[39m
      1 Linear |R| = [33m2.611322e+03[39m
      2 Linear |R| = [33m2.570200e+03[39m
      3 Linear |R| = [33m2.537635e+03[39m
      4 Linear |R| = [33m2.481521e+03[39m
      5 Linear |R| = [33m2.480582e+03[39m
      6 Linear |R| = [33m2.441676e+03[39m
      7 Linear |R| = [33m2.440094e+03[39m
      8 Linear |R| = [33m2.428112e+03[39m
      9 Linear |R| = [33m2.423669e+03[39m
     10 Linear |R| = [33m2.423190e+03[39m
     11 Linear |R| = [33m2.319367e+03[39m
     12 Linear |R| = [33m2.318753e+03[39m
     13 Linear |R| = [33m2.310245e+03[39m
     14 Linear |R| = [33m2.290739e+03[39m
     15 Linear |R| = [33m2.284588e+03[39m
     16 Linear |R| = [33m2.282871e+03[39m
     17 Linear |R| = [33m2.260496e+03[39m
     18 Linear |R| = [33m2.228323e+03[39m
     19 Linear |R| = [33m2.195199e+03[39m
     20 Linear |R| = [33m2.193175e+03[39m
  Linear solve did not converge due to DIVERGED_ITS iterations 20
 4 Nonlinear |R| = [33m2.611342e+03[39m
      0 Linear |R| = [32m2.611342e+03[39m
      1 Linear |R| = [33m2.603429e+03[39m
      2 Linear |R| = [33m2.603411e+03[39m
      3 Linear |R| = [33m2.590417e+03[39m
      4 Linear |R| = [33m2.557598e+03[39m
      5 Linear |R| = [33m2.556475e+03[39m
      6 Linear |R| = [33m2.547184e+03[39m
      7 Linear |R| = [33m2.489886e+03[39m
      8 Linear |R| = [32m2.283382e+03[39m
      9 Linear |R| = [33m2.241449e+03[39m
     10 Linear |R| = [33m2.219074e+03[39m
     11 Linear |R| = [33m2.215141e+03[39m
     12 Linear |R| = [33m2.213931e+03[39m
     13 Linear |R| = [33m2.211450e+03[39m
     14 Linear |R| = [33m2.195536e+03[39m
     15 Linear |R| = [33m2.193612e+03[39m
     16 Linear |R| = [33m2.149065e+03[39m
     17 Linear |R| = [33m2.147716e+03[39m
     18 Linear |R| = [33m2.119584e+03[39m
     19 Linear |R| = [33m2.119484e+03[39m
     20 Linear |R| = [33m2.089051e+03[39m
  Linear solve did not converge due to DIVERGED_ITS iterations 20
 5 Nonlinear |R| = [33m2.611342e+03[39m
      0 Linear |R| = [32m2.611342e+03[39m
      1 Linear |R| = [33m2.603855e+03[39m
      2 Linear |R| = [33m2.566017e+03[39m
      3 Linear |R| = [33m2.556330e+03[39m
      4 Linear |R| = [33m2.544175e+03[39m
      5 Linear |R| = [33m2.533668e+03[39m
      6 Linear |R| = [33m2.505499e+03[39m
      7 Linear |R| = [33m2.475087e+03[39m
      8 Linear |R| = [33m2.453850e+03[39m
      9 Linear |R| = [33m2.452966e+03[39m
     10 Linear |R| = [33m2.420333e+03[39m
     11 Linear |R| = [33m2.364022e+03[39m
     12 Linear |R| = [33m2.362875e+03[39m
     13 Linear |R| = [33m2.351967e+03[39m
     14 Linear |R| = [33m2.347664e+03[39m
     15 Linear |R| = [33m2.249868e+03[39m
     16 Linear |R| = [33m2.204024e+03[39m
     17 Linear |R| = [33m2.144108e+03[39m
     18 Linear |R| = [33m2.139415e+03[39m
     19 Linear |R| = [33m2.131810e+03[39m
     20 Linear |R| = [33m2.117666e+03[39m
  Linear solve did not converge due to DIVERGED_ITS iterations 20
 6 Nonlinear |R| = [33m2.611342e+03[39m
      0 Linear |R| = [32m2.611342e+03[39m
      1 Linear |R| = [33m2.598951e+03[39m
      2 Linear |R| = [33m2.484646e+03[39m
      3 Linear |R| = [33m2.471386e+03[39m
      4 Linear |R| = [33m2.458721e+03[39m
      5 Linear |R| = [33m2.375824e+03[39m
      6 Linear |R| = [33m2.316562e+03[39m
      7 Linear |R| = [33m2.310045e+03[39m
      8 Linear |R| = [33m2.255373e+03[39m
      9 Linear |R| = [33m2.255249e+03[39m
     10 Linear |R| = [33m2.255120e+03[39m
     11 Linear |R| = [33m2.249280e+03[39m
     12 Linear |R| = [33m2.199951e+03[39m
     13 Linear |R| = [33m2.184347e+03[39m
     14 Linear |R| = [33m2.182279e+03[39m
     15 Linear |R| = [33m2.181224e+03[39m
     16 Linear |R| = [33m2.158766e+03[39m
     17 Linear |R| = [33m2.114362e+03[39m
     18 Linear |R| = [33m2.114349e+03[39m
     19 Linear |R| = [33m2.114348e+03[39m
     20 Linear |R| = [33m2.113037e+03[39m
  Linear solve did not converge due to DIVERGED_ITS iterations 20
 7 Nonlinear |R| = [33m2.611342e+03[39m
      0 Linear |R| = [32m2.611342e+03[39m
      1 Linear |R| = [33m2.556233e+03[39m
      2 Linear |R| = [33m2.470361e+03[39m
      3 Linear |R| = [33m2.469998e+03[39m
      4 Linear |R| = [33m2.469278e+03[39m
      5 Linear |R| = [33m2.468111e+03[39m
      6 Linear |R| = [33m2.467946e+03[39m
      7 Linear |R| = [33m2.434351e+03[39m
      8 Linear |R| = [33m2.413364e+03[39m
      9 Linear |R| = [33m2.381314e+03[39m
     10 Linear |R| = [33m2.324295e+03[39m
     11 Linear |R| = [33m2.314468e+03[39m
     12 Linear |R| = [33m2.309650e+03[39m
     13 Linear |R| = [33m2.304378e+03[39m
     14 Linear |R| = [33m2.227773e+03[39m
     15 Linear |R| = [33m2.218917e+03[39m
     16 Linear |R| = [33m2.189522e+03[39m
     17 Linear |R| = [33m2.165341e+03[39m
     18 Linear |R| = [33m2.126198e+03[39m
     19 Linear |R| = [33m2.124551e+03[39m
     20 Linear |R| = [33m2.116945e+03[39m
  Linear solve did not converge due to DIVERGED_ITS iterations 20
Nonlinear solve did not converge due to DIVERGED_LINE_SEARCH iterations 7
[31m Solve Did NOT Converge![39m
Aborting as solve did not converge

Solve failed, cutting timestep.

Time Step 2, time = 19, dt = 9
 0 Nonlinear |R| = [32m3.227676e+03[39m
      0 Linear |R| = [32m3.227676e+03[39m
      1 Linear |R| = [33m3.084656e+03[39m
      2 Linear |R| = [33m3.004193e+03[39m
      3 Linear |R| = [33m2.867103e+03[39m
      4 Linear |R| = [33m2.807977e+03[39m
      5 Linear |R| = [33m2.802934e+03[39m
      6 Linear |R| = [33m2.801671e+03[39m
      7 Linear |R| = [33m2.760178e+03[39m
      8 Linear |R| = [33m2.755891e+03[39m
      9 Linear |R| = [33m2.745669e+03[39m
     10 Linear |R| = [33m2.742007e+03[39m
     11 Linear |R| = [33m2.684349e+03[39m
     12 Linear |R| = [33m2.683878e+03[39m
     13 Linear |R| = [33m2.635415e+03[39m
     14 Linear |R| = [33m2.595985e+03[39m
     15 Linear |R| = [33m2.548586e+03[39m
     16 Linear |R| = [32m2.275287e+03[39m
     17 Linear |R| = [33m2.228935e+03[39m
     18 Linear |R| = [33m2.213111e+03[39m
     19 Linear |R| = [33m2.200956e+03[39m
     20 Linear |R| = [33m2.194978e+03[39m
  Linear solve did not converge due to DIVERGED_ITS iterations 20
 1 Nonlinear |R| = [32m2.496363e+03[39m
      0 Linear |R| = [32m2.496363e+03[39m
      1 Linear |R| = [33m2.491669e+03[39m
      2 Linear |R| = [33m2.389471e+03[39m
      3 Linear |R| = [33m2.382436e+03[39m
      4 Linear |R| = [33m2.382342e+03[39m
      5 Linear |R| = [33m2.377163e+03[39m
      6 Linear |R| = [33m2.373629e+03[39m
      7 Linear |R| = [33m2.353927e+03[39m
      8 Linear |R| = [33m2.353800e+03[39m
      9 Linear |R| = [33m2.349317e+03[39m
     10 Linear |R| = [33m2.260286e+03[39m
     11 Linear |R| = [33m2.214264e+03[39m
     12 Linear |R| = [33m2.142589e+03[39m
     13 Linear |R| = [33m2.140975e+03[39m
     14 Linear |R| = [33m2.138823e+03[39m
     15 Linear |R| = [33m2.138748e+03[39m
     16 Linear |R| = [33m2.138721e+03[39m
     17 Linear |R| = [33m2.082320e+03[39m
     18 Linear |R| = [33m2.069520e+03[39m
     19 Linear |R| = [33m2.068100e+03[39m
     20 Linear |R| = [33m2.050165e+03[39m
  Linear solve did not converge due to DIVERGED_ITS iterations 20
 2 Nonlinear |R| = [33m2.496362e+03[39m
      0 Linear |R| = [32m2.496362e+03[39m
      1 Linear |R| = [33m2.495789e+03[39m
      2 Linear |R| = [33m2.480024e+03[39m
      3 Linear |R| = [33m2.448746e+03[39m
      4 Linear |R| = [33m2.391387e+03[39m
      5 Linear |R| = [33m2.391334e+03[39m
      6 Linear |R| = [33m2.383011e+03[39m
      7 Linear |R| = [32m2.205000e+03[39m
      8 Linear |R| = [33m2.196886e+03[39m
      9 Linear |R| = [33m2.190531e+03[39m
     10 Linear |R| = [33m2.151642e+03[39m
     11 Linear |R| = [33m2.123260e+03[39m
     12 Linear |R| = [33m2.120446e+03[39m
     13 Linear |R| = [33m2.108992e+03[39m
     14 Linear |R| = [33m2.106368e+03[39m
     15 Linear |R| = [33m2.105885e+03[39m
     16 Linear |R| = [33m2.102671e+03[39m
     17 Linear |R| = [33m2.072735e+03[39m
     18 Linear |R| = [33m2.072704e+03[39m
     19 Linear |R| = [33m2.071631e+03[39m
     20 Linear |R| = [33m2.069240e+03[39m
  Linear solve did not converge due to DIVERGED_ITS iterations 20
Nonlinear solve did not converge due to DIVERGED_LINE_SEARCH iterations 2
[31m Solve Did NOT Converge![39m
Aborting as solve did not converge

Solve failed, cutting timestep.

Time Step 2, time = 18.1, dt = 8.1
 0 Nonlinear |R| = [32m3.227676e+03[39m
      0 Linear |R| = [32m3.227676e+03[39m
      1 Linear |R| = [33m3.069306e+03[39m
      2 Linear |R| = [33m3.033344e+03[39m
      3 Linear |R| = [33m3.033335e+03[39m
      4 Linear |R| = [32m2.842211e+03[39m
      5 Linear |R| = [33m2.809358e+03[39m
      6 Linear |R| = [33m2.748198e+03[39m
      7 Linear |R| = [33m2.744221e+03[39m
      8 Linear |R| = [33m2.680500e+03[39m
      9 Linear |R| = [33m2.641790e+03[39m
     10 Linear |R| = [33m2.627653e+03[39m
     11 Linear |R| = [33m2.626138e+03[39m
     12 Linear |R| = [33m2.560992e+03[39m
     13 Linear |R| = [33m2.556914e+03[39m
     14 Linear |R| = [33m2.534065e+03[39m
     15 Linear |R| = [33m2.532434e+03[39m
     16 Linear |R| = [33m2.431759e+03[39m
     17 Linear |R| = [33m2.429313e+03[39m
     18 Linear |R| = [33m2.428592e+03[39m
     19 Linear |R| = [33m2.428556e+03[39m
     20 Linear |R| = [33m2.398058e+03[39m
  Linear solve did not converge due to DIVERGED_ITS iterations 20
 1 Nonlinear |R| = [32m2.216791e+03[39m
      0 Linear |R| = [32m2.216791e+03[39m
      1 Linear |R| = [33m2.216302e+03[39m
      2 Linear |R| = [33m2.196116e+03[39m
      3 Linear |R| = [33m2.187439e+03[39m
      4 Linear |R| = [33m2.184499e+03[39m
      5 Linear |R| = [33m2.173414e+03[39m
      6 Linear |R| = [33m2.163266e+03[39m
      7 Linear |R| = [33m2.138999e+03[39m
      8 Linear |R| = [33m2.136114e+03[39m
      9 Linear |R| = [33m2.136112e+03[39m
     10 Linear |R| = [33m2.130645e+03[39m
     11 Linear |R| = [33m2.078034e+03[39m
     12 Linear |R| = [33m2.064401e+03[39m
     13 Linear |R| = [33m2.063932e+03[39m
     14 Linear |R| = [33m2.009712e+03[39m
     15 Linear |R| = [33m1.994713e+03[39m
     16 Linear |R| = [33m1.965806e+03[39m
     17 Linear |R| = [33m1.951858e+03[39m
     18 Linear |R| = [33m1.933114e+03[39m
     19 Linear |R| = [33m1.895498e+03[39m
     20 Linear |R| = [33m1.842713e+03[39m
  Linear solve did not converge due to DIVERGED_ITS iterations 20
 2 Nonlinear |R| = [33m2.216791e+03[39m
      0 Linear |R| = [32m2.216791e+03[39m
      1 Linear |R| = [33m2.213990e+03[39m
      2 Linear |R| = [33m2.164329e+03[39m
      3 Linear |R| = [33m2.151364e+03[39m
      4 Linear |R| = [33m2.147337e+03[39m
      5 Linear |R| = [33m2.131786e+03[39m
      6 Linear |R| = [33m2.131625e+03[39m
      7 Linear |R| = [33m2.122246e+03[39m
      8 Linear |R| = [33m2.071529e+03[39m
      9 Linear |R| = [33m2.020266e+03[39m
     10 Linear |R| = [33m2.020110e+03[39m
     11 Linear |R| = [33m2.019924e+03[39m
     12 Linear |R| = [33m2.011819e+03[39m
     13 Linear |R| = [33m2.007689e+03[39m
     14 Linear |R| = [33m1.985682e+03[39m
     15 Linear |R| = [33m1.959686e+03[39m
     16 Linear |R| = [33m1.958753e+03[39m
     17 Linear |R| = [33m1.897660e+03[39m
     18 Linear |R| = [33m1.894683e+03[39m
     19 Linear |R| = [33m1.893479e+03[39m
     20 Linear |R| = [33m1.892428e+03[39m
  Linear solve did not converge due to DIVERGED_ITS iterations 20
 3 Nonlinear |R| = [33m2.216791e+03[39m
      0 Linear |R| = [32m2.216791e+03[39m
      1 Linear |R| = [33m2.204084e+03[39m
      2 Linear |R| = [33m2.204077e+03[39m
      3 Linear |R| = [33m2.141715e+03[39m
      4 Linear |R| = [33m2.135190e+03[39m
      5 Linear |R| = [33m2.135189e+03[39m
      6 Linear |R| = [33m2.130585e+03[39m
      7 Linear |R| = [33m2.088087e+03[39m
      8 Linear |R| = [33m2.078016e+03[39m
      9 Linear |R| = [33m2.076876e+03[39m
     10 Linear |R| = [33m2.076534e+03[39m
     11 Linear |R| = [33m2.073940e+03[39m
     12 Linear |R| = [32m1.894111e+03[39m
     13 Linear |R| = [33m1.881712e+03[39m
     14 Linear |R| = [33m1.880489e+03[39m
     15 Linear |R| = [33m1.875255e+03[39m
     16 Linear |R| = [33m1.860657e+03[39m
     17 Linear |R| = [33m1.856143e+03[39m
     18 Linear |R| = [33m1.846861e+03[39m
     19 Linear |R| = [33m1.836872e+03[39m
     20 Linear |R| = [33m1.836746e+03[39m
  Linear solve did not converge due to DIVERGED_ITS iterations 20
 4 Nonlinear |R| = [33m2.216791e+03[39m
      0 Linear |R| = [32m2.216791e+03[39m
      1 Linear |R| = [33m2.200982e+03[39m
      2 Linear |R| = [33m2.198732e+03[39m
      3 Linear |R| = [33m2.172744e+03[39m
      4 Linear |R| = [33m2.172340e+03[39m
      5 Linear |R| = [33m2.160745e+03[39m
      6 Linear |R| = [33m2.128265e+03[39m
      7 Linear |R| = [33m2.126564e+03[39m
      8 Linear |R| = [33m2.100457e+03[39m
      9 Linear |R| = [33m2.076682e+03[39m
     10 Linear |R| = [33m2.050182e+03[39m
     11 Linear |R| = [33m2.028936e+03[39m
     12 Linear |R| = [33m2.003876e+03[39m
     13 Linear |R| = [33m2.001637e+03[39m
     14 Linear |R| = [33m2.001149e+03[39m
     15 Linear |R| = [33m1.984058e+03[39m
     16 Linear |R| = [33m1.911706e+03[39m
     17 Linear |R| = [33m1.908830e+03[39m
     18 Linear |R| = [33m1.897047e+03[39m
     19 Linear |R| = [33m1.888942e+03[39m
     20 Linear |R| = [33m1.873121e+03[39m
  Linear solve did not converge due to DIVERGED_ITS iterations 20
 5 Nonlinear |R| = [33m2.216791e+03[39m
      0 Linear |R| = [32m2.216791e+03[39m
      1 Linear |R| = [33m2.201710e+03[39m
      2 Linear |R| = [33m2.180361e+03[39m
      3 Linear |R| = [33m2.139706e+03[39m
      4 Linear |R| = [33m2.117538e+03[39m
      5 Linear |R| = [33m2.116945e+03[39m
      6 Linear |R| = [33m2.112385e+03[39m
      7 Linear |R| = [33m2.085971e+03[39m
      8 Linear |R| = [33m2.079175e+03[39m
      9 Linear |R| = [33m2.037975e+03[39m
     10 Linear |R| = [33m2.037916e+03[39m
     11 Linear |R| = [33m1.949001e+03[39m
     12 Linear |R| = [33m1.852046e+03[39m
     13 Linear |R| = [33m1.847826e+03[39m
     14 Linear |R| = [33m1.814925e+03[39m
     15 Linear |R| = [33m1.812383e+03[39m
     16 Linear |R| = [33m1.805943e+03[39m
     17 Linear |R| = [33m1.786576e+03[39m
     18 Linear |R| = [33m1.784397e+03[39m
     19 Linear |R| = [33m1.777082e+03[39m
     20 Linear |R| = [33m1.773488e+03[39m
  Linear solve did not converge due to DIVERGED_ITS iterations 20
Nonlinear solve did not converge due to DIVERGED_LINE_SEARCH iterations 5
[31m Solve Did NOT Converge![39m
Aborting as solve did not converge

Solve failed, cutting timestep.

Time Step 2, time = 17.29, dt = 7.29
 0 Nonlinear |R| = [32m3.227676e+03[39m
      0 Linear |R| = [32m3.227676e+03[39m
      1 Linear |R| = [32m3.009221e+03[39m
      2 Linear |R| = [33m2.988953e+03[39m
      3 Linear |R| = [33m2.983326e+03[39m
      4 Linear |R| = [33m2.976744e+03[39m
      5 Linear |R| = [33m2.884015e+03[39m
      6 Linear |R| = [33m2.883981e+03[39m
      7 Linear |R| = [33m2.873196e+03[39m
      8 Linear |R| = [33m2.835687e+03[39m
      9 Linear |R| = [33m2.817335e+03[39m
     10 Linear |R| = [33m2.806442e+03[39m
     11 Linear |R| = [33m2.804286e+03[39m
     12 Linear |R| = [33m2.757842e+03[39m
     13 Linear |R| = [33m2.755324e+03[39m
     14 Linear |R| = [33m2.686290e+03[39m
     15 Linear |R| = [33m2.683553e+03[39m
     16 Linear |R| = [33m2.571459e+03[39m
     17 Linear |R| = [33m2.478900e+03[39m
     18 Linear |R| = [33m2.442239e+03[39m
     19 Linear |R| = [33m2.413679e+03[39m
     20 Linear |R| = [33m2.409655e+03[39m
  Linear solve did not converge due to DIVERGED_ITS iterations 20
 1 Nonlinear |R| = [32m2.322373e+03[39m
      0 Linear |R| = [32m2.322373e+03[39m
      1 Linear |R| = [33m2.322081e+03[39m
      2 Linear |R| = [33m2.312204e+03[39m
      3 Linear |R| = [33m2.296791e+03[39m
      4 Linear |R| = [33m2.292689e+03[39m
      5 Linear |R| = [33m2.285581e+03[39m
      6 Linear |R| = [33m2.284636e+03[39m
      7 Linear |R| = [33m2.265760e+03[39m
      8 Linear |R| = [33m2.262294e+03[39m
      9 Linear |R| = [33m2.261072e+03[39m
     10 Linear |R| = [33m2.256710e+03[39m
     11 Linear |R| = [33m2.190257e+03[39m
     12 Linear |R| = [33m2.186770e+03[39m
     13 Linear |R| = [33m2.180009e+03[39m
     14 Linear |R| = [33m2.179865e+03[39m
     15 Linear |R| = [33m2.166696e+03[39m
     16 Linear |R| = [33m2.159418e+03[39m
     17 Linear |R| = [33m2.158744e+03[39m
     18 Linear |R| = [33m2.131197e+03[39m
     19 Linear |R| = [33m2.119550e+03[39m
     20 Linear |R| = [33m2.115330e+03[39m
  Linear solve did not converge due to DIVERGED_ITS iterations 20
 2 Nonlinear |R| = [33m2.322373e+03[39m
      0 Linear |R| = [32m2.322373e+03[39m
      1 Linear |R| = [33m2.319420e+03[39m
      2 Linear |R| = [33m2.310731e+03[39m
      3 Linear |R| = [33m2.310698e+03[39m
      4 Linear |R| = [33m2.307280e+03[39m
      5 Linear |R| = [33m2.307086e+03[39m
      6 Linear |R| = [33m2.306790e+03[39m
      7 Linear |R| = [33m2.300273e+03[39m
      8 Linear |R| = [33m2.260526e+03[39m
      9 Linear |R| = [33m2.232105e+03[39m
     10 Linear |R| = [33m2.229004e+03[39m
     11 Linear |R| = [33m2.223958e+03[39m
     12 Linear |R| = [33m2.221300e+03[39m
     13 Linear |R| = [33m2.218638e+03[39m
     14 Linear |R| = [33m2.207018e+03[39m
     15 Linear |R| = [33m2.198481e+03[39m
     16 Linear |R| = [33m2.196985e+03[39m
     17 Linear |R| = [33m2.183841e+03[39m
     18 Linear |R| = [33m2.134561e+03[39m
     19 Linear |R| = [33m2.133852e+03[39m
     20 Linear |R| = [33m2.109360e+03[39m
  Linear solve did not converge due to DIVERGED_ITS iterations 20
Nonlinear solve did not converge due to DIVERGED_LINE_SEARCH iterations 2
[31m Solve Did NOT Converge![39m
Aborting as solve did not converge

Solve failed, cutting timestep.

Time Step 2, time = 16.561, dt = 6.561
 0 Nonlinear |R| = [32m3.227676e+03[39m
      0 Linear |R| = [32m3.227676e+03[39m
      1 Linear |R| = [33m3.128197e+03[39m
      2 Linear |R| = [33m3.023294e+03[39m
      3 Linear |R| = [33m3.011702e+03[39m
      4 Linear |R| = [33m2.960495e+03[39m
      5 Linear |R| = [33m2.953239e+03[39m
      6 Linear |R| = [33m2.948868e+03[39m
      7 Linear |R| = [33m2.944195e+03[39m
      8 Linear |R| = [33m2.850225e+03[39m
      9 Linear |R| = [33m2.820901e+03[39m
     10 Linear |R| = [33m2.820867e+03[39m
     11 Linear |R| = [33m2.817295e+03[39m
     12 Linear |R| = [33m2.816422e+03[39m
     13 Linear |R| = [33m2.811864e+03[39m
     14 Linear |R| = [33m2.767688e+03[39m
     15 Linear |R| = [33m2.767563e+03[39m
     16 Linear |R| = [33m2.763325e+03[39m
     17 Linear |R| = [33m2.712306e+03[39m
     18 Linear |R| = [33m2.712237e+03[39m
     19 Linear |R| = [33m2.678665e+03[39m
     20 Linear |R| = [33m2.674690e+03[39m
  Linear solve did not converge due to DIVERGED_ITS iterations 20
 1 Nonlinear |R| = [32m2.376429e+03[39m
      0 Linear |R| = [32m2.376429e+03[39m
      1 Linear |R| = [33m2.342091e+03[39m
      2 Linear |R| = [33m2.341962e+03[39m
      3 Linear |R| = [33m2.340783e+03[39m
      4 Linear |R| = [33m2.335836e+03[39m
      5 Linear |R| = [33m2.300733e+03[39m
      6 Linear |R| = [33m2.296951e+03[39m
      7 Linear |R| = [33m2.265050e+03[39m
      8 Linear |R| = [33m2.254169e+03[39m
      9 Linear |R| = [33m2.246038e+03[39m
     10 Linear |R| = [33m2.234949e+03[39m
     11 Linear |R| = [33m2.180463e+03[39m
     12 Linear |R| = [33m2.175376e+03[39m
     13 Linear |R| = [33m2.167086e+03[39m
     14 Linear |R| = [33m2.162774e+03[39m
     15 Linear |R| = [33m2.158331e+03[39m
     16 Linear |R| = [33m2.110993e+03[39m
     17 Linear |R| = [33m2.085654e+03[39m
     18 Linear |R| = [33m2.048907e+03[39m
     19 Linear |R| = [33m2.027681e+03[39m
     20 Linear |R| = [33m2.022205e+03[39m
  Linear solve did not converge due to DIVERGED_ITS iterations 20
 2 Nonlinear |R| = [33m2.376429e+03[39m
      0 Linear |R| = [32m2.376429e+03[39m
      1 Linear |R| = [33m2.343679e+03[39m
      2 Linear |R| = [33m2.343350e+03[39m
      3 Linear |R| = [33m2.338756e+03[39m
      4 Linear |R| = [33m2.337214e+03[39m
      5 Linear |R| = [33m2.336097e+03[39m
      6 Linear |R| = [33m2.329247e+03[39m
      7 Linear |R| = [33m2.326595e+03[39m
      8 Linear |R| = [33m2.323696e+03[39m
      9 Linear |R| = [33m2.300313e+03[39m
     10 Linear |R| = [33m2.256761e+03[39m
     11 Linear |R| = [33m2.252963e+03[39m
     12 Linear |R| = [33m2.221219e+03[39m
     13 Linear |R| = [33m2.156972e+03[39m
     14 Linear |R| = [33m2.126793e+03[39m
     15 Linear |R| = [33m2.097406e+03[39m
     16 Linear |R| = [33m2.085930e+03[39m
     17 Linear |R| = [33m2.084894e+03[39m
     18 Linear |R| = [33m2.062709e+03[39m
     19 Linear |R| = [33m2.042953e+03[39m
     20 Linear |R| = [33m2.042920e+03[39m
  Linear solve did not converge due to DIVERGED_ITS iterations 20
 3 Nonlinear |R| = [33m2.376429e+03[39m
      0 Linear |R| = [32m2.376429e+03[39m
      1 Linear |R| = [33m2.343146e+03[39m
      2 Linear |R| = [33m2.291018e+03[39m
      3 Linear |R| = [33m2.287104e+03[39m
      4 Linear |R| = [33m2.263803e+03[39m
      5 Linear |R| = [33m2.248577e+03[39m
      6 Linear |R| = [33m2.242759e+03[39m
      7 Linear |R| = [33m2.238026e+03[39m
      8 Linear |R| = [33m2.220327e+03[39m
      9 Linear |R| = [33m2.197614e+03[39m
     10 Linear |R| = [33m2.134121e+03[39m
     11 Linear |R| = [33m2.130159e+03[39m
     12 Linear |R| = [33m2.113419e+03[39m
     13 Linear |R| = [33m2.100031e+03[39m
     14 Linear |R| = [33m2.099109e+03[39m
     15 Linear |R| = [33m2.083310e+03[39m
     16 Linear |R| = [33m2.059931e+03[39m
     17 Linear |R| = [33m2.002352e+03[39m
     18 Linear |R| = [33m1.980257e+03[39m
     19 Linear |R| = [33m1.943903e+03[39m
     20 Linear |R| = [33m1.919134e+03[39m
  Linear solve did not converge due to DIVERGED_ITS iterations 20
 4 Nonlinear |R| = [33m2.376429e+03[39m
      0 Linear |R| = [32m2.376429e+03[39m
      1 Linear |R| = [33m2.365704e+03[39m
      2 Linear |R| = [33m2.364962e+03[39m
      3 Linear |R| = [33m2.364603e+03[39m
      4 Linear |R| = [33m2.362011e+03[39m
      5 Linear |R| = [33m2.358537e+03[39m
      6 Linear |R| = [33m2.252112e+03[39m
      7 Linear |R| = [33m2.252002e+03[39m
      8 Linear |R| = [33m2.250187e+03[39m
      9 Linear |R| = [33m2.232105e+03[39m
     10 Linear |R| = [33m2.186041e+03[39m
     11 Linear |R| = [33m2.114705e+03[39m
     12 Linear |R| = [33m2.104352e+03[39m
     13 Linear |R| = [33m2.059708e+03[39m
     14 Linear |R| = [33m2.058572e+03[39m
     15 Linear |R| = [33m2.057172e+03[39m
     16 Linear |R| = [33m2.046885e+03[39m
     17 Linear |R| = [33m2.019404e+03[39m
     18 Linear |R| = [33m2.017362e+03[39m
     19 Linear |R| = [33m2.017125e+03[39m
     20 Linear |R| = [33m1.988948e+03[39m
  Linear solve did not converge due to DIVERGED_ITS iterations 20
Nonlinear solve did not converge due to DIVERGED_LINE_SEARCH iterations 4
[31m Solve Did NOT Converge![39m
Aborting as solve did not converge

Solve failed, cutting timestep.

Time Step 2, time = 15.9049, dt = 5.9049
 0 Nonlinear |R| = [32m3.227676e+03[39m
      0 Linear |R| = [32m3.227676e+03[39m
      1 Linear |R| = [33m3.163565e+03[39m
      2 Linear |R| = [33m3.122203e+03[39m
      3 Linear |R| = [33m3.104208e+03[39m
      4 Linear |R| = [33m3.063461e+03[39m
      5 Linear |R| = [33m3.019599e+03[39m
      6 Linear |R| = [33m3.014414e+03[39m
      7 Linear |R| = [33m2.980272e+03[39m
      8 Linear |R| = [33m2.881899e+03[39m
      9 Linear |R| = [33m2.865866e+03[39m
     10 Linear |R| = [33m2.865848e+03[39m
     11 Linear |R| = [33m2.836370e+03[39m
     12 Linear |R| = [33m2.823239e+03[39m
     13 Linear |R| = [32m2.662843e+03[39m
     14 Linear |R| = [33m2.652380e+03[39m
     15 Linear |R| = [33m2.577155e+03[39m
     16 Linear |R| = [33m2.575514e+03[39m
     17 Linear |R| = [33m2.569847e+03[39m
     18 Linear |R| = [33m2.531900e+03[39m
     19 Linear |R| = [33m2.507358e+03[39m
     20 Linear |R| = [33m2.504856e+03[39m
  Linear solve did not converge due to DIVERGED_ITS iterations 20
 1 Nonlinear |R| = [32m2.459152e+03[39m
      0 Linear |R| = [32m2.459152e+03[39m
      1 Linear |R| = [33m2.439498e+03[39m
      2 Linear |R| = [33m2.433999e+03[39m
      3 Linear |R| = [33m2.410904e+03[39m
      4 Linear |R| = [33m2.410779e+03[39m
      5 Linear |R| = [33m2.408442e+03[39m
      6 Linear |R| = [33m2.385016e+03[39m
      7 Linear |R| = [33m2.314923e+03[39m
      8 Linear |R| = [33m2.275245e+03[39m
      9 Linear |R| = [33m2.272925e+03[39m
     10 Linear |R| = [33m2.266206e+03[39m
     11 Linear |R| = [33m2.265520e+03[39m
     12 Linear |R| = [33m2.256762e+03[39m
     13 Linear |R| = [33m2.244521e+03[39m
     14 Linear |R| = [33m2.241857e+03[39m
     15 Linear |R| = [33m2.237005e+03[39m
     16 Linear |R| = [33m2.236989e+03[39m
     17 Linear |R| = [33m2.204581e+03[39m
     18 Linear |R| = [33m2.204506e+03[39m
     19 Linear |R| = [33m2.201456e+03[39m
     20 Linear |R| = [33m2.192285e+03[39m
  Linear solve did not converge due to DIVERGED_ITS iterations 20
 2 Nonlinear |R| = [33m2.459152e+03[39m
      0 Linear |R| = [32m2.459152e+03[39m
      1 Linear |R| = [33m2.448494e+03[39m
      2 Linear |R| = [33m2.425846e+03[39m
      3 Linear |R| = [33m2.359397e+03[39m
      4 Linear |R| = [33m2.346669e+03[39m
      5 Linear |R| = [33m2.316909e+03[39m
      6 Linear |R| = [33m2.309285e+03[39m
      7 Linear |R| = [33m2.309058e+03[39m
      8 Linear |R| = [33m2.291097e+03[39m
      9 Linear |R| = [33m2.291052e+03[39m
     10 Linear |R| = [33m2.290206e+03[39m
     11 Linear |R| = [33m2.273902e+03[39m
     12 Linear |R| = [33m2.270627e+03[39m
     13 Linear |R| = [33m2.245647e+03[39m
     14 Linear |R| = [33m2.241748e+03[39m
     15 Linear |R| = [33m2.235828e+03[39m
     16 Linear |R| = [33m2.228858e+03[39m
     17 Linear |R| = [33m2.217215e+03[39m
     18 Linear |R| = [33m2.190055e+03[39m
     19 Linear |R| = [33m2.188048e+03[39m
     20 Linear |R| = [33m2.155560e+03[39m
  Linear solve did not converge due to DIVERGED_ITS iterations 20
 3 Nonlinear |R| = [33m2.459152e+03[39m
      0 Linear |R| = [32m2.459152e+03[39m
      1 Linear |R| = [33m2.459081e+03[39m
      2 Linear |R| = [33m2.433432e+03[39m
      3 Linear |R| = [33m2.398860e+03[39m
      4 Linear |R| = [33m2.388719e+03[39m
      5 Linear |R| = [33m2.363474e+03[39m
      6 Linear |R| = [33m2.363256e+03[39m
      7 Linear |R| = [33m2.361882e+03[39m
      8 Linear |R| = [33m2.350536e+03[39m
      9 Linear |R| = [33m2.246209e+03[39m
     10 Linear |R| = [33m2.229938e+03[39m
     11 Linear |R| = [33m2.217822e+03[39m
     12 Linear |R| = [33m2.213331e+03[39m
     13 Linear |R| = [33m2.203107e+03[39m
     14 Linear |R| = [33m2.196996e+03[39m
     15 Linear |R| = [33m2.167745e+03[39m
     16 Linear |R| = [33m2.163907e+03[39m
     17 Linear |R| = [33m2.163768e+03[39m
     18 Linear |R| = [33m2.158232e+03[39m
     19 Linear |R| = [33m2.156271e+03[39m
     20 Linear |R| = [33m2.102086e+03[39m
  Linear solve did not converge due to DIVERGED_ITS iterations 20
 4 Nonlinear |R| = [33m2.459152e+03[39m
      0 Linear |R| = [32m2.459152e+03[39m
      1 Linear |R| = [33m2.427697e+03[39m
      2 Linear |R| = [33m2.427472e+03[39m
      3 Linear |R| = [33m2.425534e+03[39m
      4 Linear |R| = [33m2.423666e+03[39m
      5 Linear |R| = [33m2.419725e+03[39m
      6 Linear |R| = [33m2.409702e+03[39m
      7 Linear |R| = [33m2.389888e+03[39m
      8 Linear |R| = [33m2.387867e+03[39m
      9 Linear |R| = [33m2.384214e+03[39m
     10 Linear |R| = [33m2.348220e+03[39m
     11 Linear |R| = [33m2.344699e+03[39m
     12 Linear |R| = [33m2.324529e+03[39m
     13 Linear |R| = [33m2.324429e+03[39m
     14 Linear |R| = [33m2.318450e+03[39m
     15 Linear |R| = [33m2.255486e+03[39m
     16 Linear |R| = [33m2.223843e+03[39m
     17 Linear |R| = [33m2.213997e+03[39m
     18 Linear |R| = [33m2.206827e+03[39m
     19 Linear |R| = [33m2.201311e+03[39m
     20 Linear |R| = [33m2.185363e+03[39m
  Linear solve did not converge due to DIVERGED_ITS iterations 20
Nonlinear solve did not converge due to DIVERGED_LINE_SEARCH iterations 4
[31m Solve Did NOT Converge![39m
Aborting as solve did not converge

Solve failed, cutting timestep.

Time Step 2, time = 15.3144, dt = 5.31441
 0 Nonlinear |R| = [32m3.227676e+03[39m
      0 Linear |R| = [32m3.227676e+03[39m
      1 Linear |R| = [33m3.100442e+03[39m
      2 Linear |R| = [32m2.931817e+03[39m
      3 Linear |R| = [33m2.931641e+03[39m
      4 Linear |R| = [33m2.887984e+03[39m
      5 Linear |R| = [33m2.886087e+03[39m
      6 Linear |R| = [32m2.737528e+03[39m
      7 Linear |R| = [33m2.636903e+03[39m
      8 Linear |R| = [33m2.557202e+03[39m
      9 Linear |R| = [33m2.520785e+03[39m
     10 Linear |R| = [33m2.466743e+03[39m
     11 Linear |R| = [33m2.441513e+03[39m
     12 Linear |R| = [33m2.329330e+03[39m
     13 Linear |R| = [33m2.286453e+03[39m
     14 Linear |R| = [33m2.273870e+03[39m
     15 Linear |R| = [33m2.254068e+03[39m
     16 Linear |R| = [33m2.253408e+03[39m
     17 Linear |R| = [33m2.250951e+03[39m
     18 Linear |R| = [33m2.228029e+03[39m
     19 Linear |R| = [33m2.212001e+03[39m
     20 Linear |R| = [33m2.211875e+03[39m
  Linear solve did not converge due to DIVERGED_ITS iterations 20
 1 Nonlinear |R| = [32m2.220549e+03[39m
      0 Linear |R| = [32m2.220549e+03[39m
      1 Linear |R| = [33m2.216557e+03[39m
      2 Linear |R| = [33m2.206273e+03[39m
      3 Linear |R| = [33m2.200364e+03[39m
      4 Linear |R| = [33m2.197498e+03[39m
      5 Linear |R| = [33m2.183171e+03[39m
      6 Linear |R| = [33m2.169540e+03[39m
      7 Linear |R| = [33m2.168328e+03[39m
      8 Linear |R| = [33m2.168185e+03[39m
      9 Linear |R| = [33m2.165112e+03[39m
     10 Linear |R| = [33m2.155879e+03[39m
     11 Linear |R| = [33m2.121731e+03[39m
     12 Linear |R| = [33m2.121364e+03[39m
     13 Linear |R| = [33m2.120397e+03[39m
     14 Linear |R| = [33m2.106558e+03[39m
     15 Linear |R| = [33m2.104099e+03[39m
     16 Linear |R| = [33m2.101984e+03[39m
     17 Linear |R| = [33m2.101862e+03[39m
     18 Linear |R| = [33m2.043421e+03[39m
     19 Linear |R| = [33m2.042687e+03[39m
     20 Linear |R| = [33m1.998168e+03[39m
  Linear solve did not converge due to DIVERGED_ITS iterations 20
 2 Nonlinear |R| = [33m2.220549e+03[39m
      0 Linear |R| = [32m2.220549e+03[39m
      1 Linear |R| = [33m2.219033e+03[39m
      2 Linear |R| = [33m2.218072e+03[39m
      3 Linear |R| = [33m2.216116e+03[39m
      4 Linear |R| = [33m2.215662e+03[39m
      5 Linear |R| = [33m2.215051e+03[39m
      6 Linear |R| = [33m2.208165e+03[39m
      7 Linear |R| = [33m2.192084e+03[39m
      8 Linear |R| = [33m2.153433e+03[39m
      9 Linear |R| = [33m2.104316e+03[39m
     10 Linear |R| = [33m2.074637e+03[39m
     11 Linear |R| = [33m2.054147e+03[39m
     12 Linear |R| = [33m2.018361e+03[39m
     13 Linear |R| = [33m2.012176e+03[39m
     14 Linear |R| = [33m1.976351e+03[39m
     15 Linear |R| = [33m1.975943e+03[39m
     16 Linear |R| = [33m1.975870e+03[39m
     17 Linear |R| = [33m1.971164e+03[39m
     18 Linear |R| = [33m1.951010e+03[39m
     19 Linear |R| = [33m1.901059e+03[39m
     20 Linear |R| = [33m1.891488e+03[39m
  Linear solve did not converge due to DIVERGED_ITS iterations 20
 3 Nonlinear |R| = [33m2.220549e+03[39m
      0 Linear |R| = [32m2.220549e+03[39m
      1 Linear |R| = [33m2.213523e+03[39m
      2 Linear |R| = [33m2.212479e+03[39m
      3 Linear |R| = [33m2.212478e+03[39m
      4 Linear |R| = [33m2.209332e+03[39m
      5 Linear |R| = [33m2.192417e+03[39m
      6 Linear |R| = [33m2.191827e+03[39m
      7 Linear |R| = [33m2.187724e+03[39m
      8 Linear |R| = [33m2.172396e+03[39m
      9 Linear |R| = [33m2.164350e+03[39m
     10 Linear |R| = [33m2.138508e+03[39m
     11 Linear |R| = [33m2.135505e+03[39m
     12 Linear |R| = [33m2.135332e+03[39m
     13 Linear |R| = [33m2.122894e+03[39m
     14 Linear |R| = [33m2.122692e+03[39m
     15 Linear |R| = [33m2.090491e+03[39m
     16 Linear |R| = [33m2.082988e+03[39m
     17 Linear |R| = [33m2.076676e+03[39m
     18 Linear |R| = [33m2.071932e+03[39m
     19 Linear |R| = [33m2.046220e+03[39m
     20 Linear |R| = [33m2.033740e+03[39m
  Linear solve did not converge due to DIVERGED_ITS iterations 20
 4 Nonlinear |R| = [33m2.220541e+03[39m
      0 Linear |R| = [32m2.220541e+03[39m
      1 Linear |R| = [33m2.220402e+03[39m
      2 Linear |R| = [33m2.220373e+03[39m
      3 Linear |R| = [33m2.220096e+03[39m
      4 Linear |R| = [33m2.189733e+03[39m
      5 Linear |R| = [33m2.170710e+03[39m
      6 Linear |R| = [33m2.157650e+03[39m
      7 Linear |R| = [33m2.154040e+03[39m
      8 Linear |R| = [33m2.153191e+03[39m
      9 Linear |R| = [33m2.152912e+03[39m
     10 Linear |R| = [33m2.152441e+03[39m
     11 Linear |R| = [33m2.109386e+03[39m
     12 Linear |R| = [33m2.101286e+03[39m
     13 Linear |R| = [33m2.069820e+03[39m
     14 Linear |R| = [33m2.060539e+03[39m
     15 Linear |R| = [33m2.060186e+03[39m
     16 Linear |R| = [33m2.057569e+03[39m
     17 Linear |R| = [33m2.022485e+03[39m
     18 Linear |R| = [33m2.008555e+03[39m
     19 Linear |R| = [33m2.004536e+03[39m
     20 Linear |R| = [33m2.004234e+03[39m
  Linear solve did not converge due to DIVERGED_ITS iterations 20
 5 Nonlinear |R| = [33m2.220540e+03[39m
      0 Linear |R| = [32m2.220540e+03[39m
      1 Linear |R| = [33m2.211651e+03[39m
      2 Linear |R| = [33m2.190737e+03[39m
      3 Linear |R| = [33m2.139041e+03[39m
      4 Linear |R| = [33m2.127331e+03[39m
      5 Linear |R| = [33m2.116542e+03[39m
      6 Linear |R| = [33m2.111784e+03[39m
      7 Linear |R| = [33m2.091300e+03[39m
      8 Linear |R| = [33m2.024151e+03[39m
      9 Linear |R| = [33m2.023119e+03[39m
     10 Linear |R| = [33m2.020827e+03[39m
     11 Linear |R| = [33m2.019189e+03[39m
     12 Linear |R| = [33m1.987881e+03[39m
     13 Linear |R| = [33m1.976172e+03[39m
     14 Linear |R| = [33m1.969996e+03[39m
     15 Linear |R| = [33m1.968557e+03[39m
     16 Linear |R| = [33m1.964254e+03[39m
     17 Linear |R| = [33m1.960297e+03[39m
     18 Linear |R| = [33m1.958710e+03[39m
     19 Linear |R| = [33m1.956058e+03[39m
     20 Linear |R| = [33m1.948545e+03[39m
  Linear solve did not converge due to DIVERGED_ITS iterations 20
Nonlinear solve did not converge due to DIVERGED_LINE_SEARCH iterations 5
[31m Solve Did NOT Converge![39m
Aborting as solve did not converge

Solve failed, cutting timestep.

Time Step 2, time = 14.783, dt = 4.78297
 0 Nonlinear |R| = [32m3.227676e+03[39m
      0 Linear |R| = [32m3.227676e+03[39m
      1 Linear |R| = [33m3.098794e+03[39m
      2 Linear |R| = [33m3.034911e+03[39m
      3 Linear |R| = [33m2.936783e+03[39m
      4 Linear |R| = [33m2.928476e+03[39m
      5 Linear |R| = [33m2.909937e+03[39m
      6 Linear |R| = [33m2.883078e+03[39m
      7 Linear |R| = [33m2.882544e+03[39m
      8 Linear |R| = [33m2.878839e+03[39m
      9 Linear |R| = [33m2.854637e+03[39m
     10 Linear |R| = [33m2.841081e+03[39m
     11 Linear |R| = [33m2.818841e+03[39m
     12 Linear |R| = [33m2.811655e+03[39m
     13 Linear |R| = [33m2.811224e+03[39m
     14 Linear |R| = [33m2.789619e+03[39m
     15 Linear |R| = [33m2.777460e+03[39m
     16 Linear |R| = [33m2.759145e+03[39m
     17 Linear |R| = [33m2.656504e+03[39m
     18 Linear |R| = [32m2.493408e+03[39m
     19 Linear |R| = [33m2.468986e+03[39m
     20 Linear |R| = [33m2.435458e+03[39m
  Linear solve did not converge due to DIVERGED_ITS iterations 20
 1 Nonlinear |R| = [32m2.252157e+03[39m
      0 Linear |R| = [32m2.252157e+03[39m
      1 Linear |R| = [33m2.247570e+03[39m
      2 Linear |R| = [33m2.182857e+03[39m
      3 Linear |R| = [33m2.182757e+03[39m
      4 Linear |R| = [33m2.172578e+03[39m
      5 Linear |R| = [33m2.139411e+03[39m
      6 Linear |R| = [33m2.137789e+03[39m
      7 Linear |R| = [33m2.131394e+03[39m
      8 Linear |R| = [33m2.101351e+03[39m
      9 Linear |R| = [33m2.099279e+03[39m
     10 Linear |R| = [33m2.095990e+03[39m
     11 Linear |R| = [33m2.051087e+03[39m
     12 Linear |R| = [33m2.017742e+03[39m
     13 Linear |R| = [33m2.017732e+03[39m
     14 Linear |R| = [33m2.015542e+03[39m
     15 Linear |R| = [33m1.999947e+03[39m
     16 Linear |R| = [33m1.977842e+03[39m
     17 Linear |R| = [33m1.973831e+03[39m
     18 Linear |R| = [33m1.971619e+03[39m
     19 Linear |R| = [33m1.964542e+03[39m
     20 Linear |R| = [33m1.918849e+03[39m
  Linear solve did not converge due to DIVERGED_ITS iterations 20
 2 Nonlinear |R| = [33m2.252157e+03[39m
      0 Linear |R| = [32m2.252157e+03[39m
      1 Linear |R| = [33m2.251941e+03[39m
      2 Linear |R| = [33m2.227886e+03[39m
      3 Linear |R| = [33m2.223054e+03[39m
      4 Linear |R| = [33m2.203422e+03[39m
      5 Linear |R| = [33m2.192963e+03[39m
      6 Linear |R| = [33m2.124586e+03[39m
      7 Linear |R| = [33m2.124087e+03[39m
      8 Linear |R| = [33m2.113157e+03[39m
      9 Linear |R| = [33m2.081854e+03[39m
     10 Linear |R| = [33m2.077524e+03[39m
     11 Linear |R| = [33m2.069068e+03[39m
     12 Linear |R| = [33m2.062598e+03[39m
     13 Linear |R| = [33m2.061990e+03[39m
     14 Linear |R| = [33m2.061688e+03[39m
     15 Linear |R| = [33m2.054077e+03[39m
     16 Linear |R| = [33m2.029857e+03[39m
     17 Linear |R| = [33m1.992789e+03[39m
     18 Linear |R| = [33m1.983649e+03[39m
     19 Linear |R| = [33m1.976290e+03[39m
     20 Linear |R| = [33m1.965468e+03[39m
  Linear solve did not converge due to DIVERGED_ITS iterations 20
 3 Nonlinear |R| = [33m2.252157e+03[39m
      0 Linear |R| = [32m2.252157e+03[39m
      1 Linear |R| = [33m2.252015e+03[39m
      2 Linear |R| = [33m2.212833e+03[39m
      3 Linear |R| = [33m2.177969e+03[39m
      4 Linear |R| = [33m2.170745e+03[39m
      5 Linear |R| = [33m2.132411e+03[39m
      6 Linear |R| = [33m2.118318e+03[39m
      7 Linear |R| = [33m2.118083e+03[39m
      8 Linear |R| = [33m2.114544e+03[39m
      9 Linear |R| = [33m2.108746e+03[39m
     10 Linear |R| = [33m2.107426e+03[39m
     11 Linear |R| = [33m2.068309e+03[39m
     12 Linear |R| = [33m2.054650e+03[39m
     13 Linear |R| = [33m2.000430e+03[39m
     14 Linear |R| = [33m1.981613e+03[39m
     15 Linear |R| = [33m1.979048e+03[39m
     16 Linear |R| = [33m1.958487e+03[39m
     17 Linear |R| = [33m1.940854e+03[39m
     18 Linear |R| = [33m1.937213e+03[39m
     19 Linear |R| = [33m1.869404e+03[39m
     20 Linear |R| = [33m1.863623e+03[39m
  Linear solve did not converge due to DIVERGED_ITS iterations 20
Nonlinear solve did not converge due to DIVERGED_LINE_SEARCH iterations 3
[31m Solve Did NOT Converge![39m
Aborting as solve did not converge

Solve failed, cutting timestep.

Time Step 2, time = 14.3047, dt = 4.30467
 0 Nonlinear |R| = [32m3.227676e+03[39m
      0 Linear |R| = [32m3.227676e+03[39m
      1 Linear |R| = [33m3.066334e+03[39m
      2 Linear |R| = [33m3.012600e+03[39m
      3 Linear |R| = [33m2.942851e+03[39m
      4 Linear |R| = [33m2.935913e+03[39m
      5 Linear |R| = [33m2.841707e+03[39m
      6 Linear |R| = [33m2.817025e+03[39m
      7 Linear |R| = [33m2.769631e+03[39m
      8 Linear |R| = [33m2.713108e+03[39m
      9 Linear |R| = [33m2.712127e+03[39m
     10 Linear |R| = [33m2.708988e+03[39m
     11 Linear |R| = [33m2.674877e+03[39m
     12 Linear |R| = [33m2.642722e+03[39m
     13 Linear |R| = [33m2.604042e+03[39m
     14 Linear |R| = [33m2.552882e+03[39m
     15 Linear |R| = [33m2.479572e+03[39m
     16 Linear |R| = [32m2.320922e+03[39m
     17 Linear |R| = [33m2.320838e+03[39m
     18 Linear |R| = [33m2.292425e+03[39m
     19 Linear |R| = [33m2.291353e+03[39m
     20 Linear |R| = [33m2.251670e+03[39m
  Linear solve did not converge due to DIVERGED_ITS iterations 20
 1 Nonlinear |R| = [32m2.064823e+03[39m
      0 Linear |R| = [32m2.064823e+03[39m
      1 Linear |R| = [33m2.060310e+03[39m
      2 Linear |R| = [33m2.056014e+03[39m
      3 Linear |R| = [33m2.054915e+03[39m
      4 Linear |R| = [33m2.053288e+03[39m
      5 Linear |R| = [33m2.053217e+03[39m
      6 Linear |R| = [33m2.040439e+03[39m
      7 Linear |R| = [33m2.036313e+03[39m
      8 Linear |R| = [33m2.036277e+03[39m
      9 Linear |R| = [33m1.972339e+03[39m
     10 Linear |R| = [33m1.971044e+03[39m
     11 Linear |R| = [33m1.910624e+03[39m
     12 Linear |R| = [33m1.910616e+03[39m
     13 Linear |R| = [33m1.910003e+03[39m
     14 Linear |R| = [33m1.900167e+03[39m
     15 Linear |R| = [33m1.892125e+03[39m
     16 Linear |R| = [33m1.880009e+03[39m
     17 Linear |R| = [33m1.879857e+03[39m
     18 Linear |R| = [33m1.878719e+03[39m
     19 Linear |R| = [33m1.878672e+03[39m
     20 Linear |R| = [33m1.863823e+03[39m
  Linear solve did not converge due to DIVERGED_ITS iterations 20
 2 Nonlinear |R| = [33m2.064823e+03[39m
      0 Linear |R| = [32m2.064823e+03[39m
      1 Linear |R| = [33m2.062282e+03[39m
      2 Linear |R| = [33m2.054060e+03[39m
      3 Linear |R| = [33m2.053945e+03[39m
      4 Linear |R| = [33m2.019919e+03[39m
      5 Linear |R| = [33m2.015853e+03[39m
      6 Linear |R| = [33m1.976301e+03[39m
      7 Linear |R| = [33m1.965087e+03[39m
      8 Linear |R| = [33m1.925368e+03[39m
      9 Linear |R| = [33m1.924396e+03[39m
     10 Linear |R| = [33m1.918990e+03[39m
     11 Linear |R| = [33m1.905511e+03[39m
     12 Linear |R| = [33m1.890447e+03[39m
     13 Linear |R| = [33m1.889288e+03[39m
     14 Linear |R| = [33m1.888073e+03[39m
     15 Linear |R| = [33m1.875101e+03[39m
     16 Linear |R| = [33m1.873405e+03[39m
     17 Linear |R| = [33m1.870533e+03[39m
     18 Linear |R| = [33m1.839523e+03[39m
     19 Linear |R| = [33m1.839292e+03[39m
     20 Linear |R| = [33m1.837979e+03[39m
  Linear solve did not converge due to DIVERGED_ITS iterations 20
 3 Nonlinear |R| = [33m2.064823e+03[39m
      0 Linear |R| = [32m2.064823e+03[39m
      1 Linear |R| = [33m2.057989e+03[39m
      2 Linear |R| = [33m2.057663e+03[39m
      3 Linear |R| = [33m2.044326e+03[39m
      4 Linear |R| = [33m2.036600e+03[39m
      5 Linear |R| = [33m2.024833e+03[39m
      6 Linear |R| = [33m2.014732e+03[39m
      7 Linear |R| = [32m1.888050e+03[39m
      8 Linear |R| = [33m1.883450e+03[39m
      9 Linear |R| = [33m1.877152e+03[39m
     10 Linear |R| = [33m1.870023e+03[39m
     11 Linear |R| = [33m1.830516e+03[39m
     12 Linear |R| = [33m1.815230e+03[39m
     13 Linear |R| = [33m1.814094e+03[39m
     14 Linear |R| = [33m1.772222e+03[39m
     15 Linear |R| = [33m1.772220e+03[39m
     16 Linear |R| = [33m1.756988e+03[39m
     17 Linear |R| = [33m1.756336e+03[39m
     18 Linear |R| = [33m1.717629e+03[39m
     19 Linear |R| = [33m1.677803e+03[39m
     20 Linear |R| = [33m1.664889e+03[39m
  Linear solve did not converge due to DIVERGED_ITS iterations 20
Nonlinear solve did not converge due to DIVERGED_LINE_SEARCH iterations 3
[31m Solve Did NOT Converge![39m
Aborting as solve did not converge

Solve failed, cutting timestep.

Time Step 2, time = 13.8742, dt = 3.8742
 0 Nonlinear |R| = [32m3.227676e+03[39m
      0 Linear |R| = [32m3.227676e+03[39m
      1 Linear |R| = [33m3.085680e+03[39m
      2 Linear |R| = [33m3.081219e+03[39m
      3 Linear |R| = [32m2.798053e+03[39m
      4 Linear |R| = [33m2.708720e+03[39m
      5 Linear |R| = [33m2.683922e+03[39m
      6 Linear |R| = [33m2.679158e+03[39m
      7 Linear |R| = [33m2.564605e+03[39m
      8 Linear |R| = [33m2.561355e+03[39m
      9 Linear |R| = [33m2.560099e+03[39m
     10 Linear |R| = [33m2.528695e+03[39m
     11 Linear |R| = [33m2.527416e+03[39m
     12 Linear |R| = [33m2.527392e+03[39m
     13 Linear |R| = [33m2.505412e+03[39m
     14 Linear |R| = [33m2.471772e+03[39m
     15 Linear |R| = [33m2.456743e+03[39m
     16 Linear |R| = [33m2.434604e+03[39m
     17 Linear |R| = [33m2.434440e+03[39m
     18 Linear |R| = [33m2.428908e+03[39m
     19 Linear |R| = [33m2.397154e+03[39m
     20 Linear |R| = [33m2.372596e+03[39m
  Linear solve did not converge due to DIVERGED_ITS iterations 20
 1 Nonlinear |R| = [32m2.421600e+03[39m
      0 Linear |R| = [32m2.421600e+03[39m
      1 Linear |R| = [33m2.362385e+03[39m
      2 Linear |R| = [33m2.362009e+03[39m
      3 Linear |R| = [33m2.343169e+03[39m
      4 Linear |R| = [33m2.333310e+03[39m
      5 Linear |R| = [33m2.329329e+03[39m
      6 Linear |R| = [33m2.228901e+03[39m
      7 Linear |R| = [33m2.228453e+03[39m
      8 Linear |R| = [33m2.207130e+03[39m
      9 Linear |R| = [33m2.205001e+03[39m
     10 Linear |R| = [33m2.197146e+03[39m
     11 Linear |R| = [33m2.156486e+03[39m
     12 Linear |R| = [33m2.142533e+03[39m
     13 Linear |R| = [33m2.127133e+03[39m
     14 Linear |R| = [33m2.110174e+03[39m
     15 Linear |R| = [33m2.107380e+03[39m
     16 Linear |R| = [33m2.101933e+03[39m
     17 Linear |R| = [33m2.035166e+03[39m
     18 Linear |R| = [33m2.033137e+03[39m
     19 Linear |R| = [33m2.013058e+03[39m
     20 Linear |R| = [33m2.008575e+03[39m
  Linear solve did not converge due to DIVERGED_ITS iterations 20
 2 Nonlinear |R| = [33m2.421599e+03[39m
      0 Linear |R| = [32m2.421599e+03[39m
      1 Linear |R| = [33m2.384941e+03[39m
      2 Linear |R| = [33m2.376219e+03[39m
      3 Linear |R| = [33m2.366895e+03[39m
      4 Linear |R| = [33m2.340911e+03[39m
      5 Linear |R| = [33m2.340723e+03[39m
      6 Linear |R| = [33m2.340722e+03[39m
      7 Linear |R| = [33m2.335788e+03[39m
      8 Linear |R| = [33m2.335785e+03[39m
      9 Linear |R| = [33m2.334464e+03[39m
     10 Linear |R| = [33m2.297180e+03[39m
     11 Linear |R| = [33m2.296256e+03[39m
     12 Linear |R| = [33m2.283179e+03[39m
     13 Linear |R| = [33m2.272791e+03[39m
     14 Linear |R| = [33m2.264698e+03[39m
     15 Linear |R| = [33m2.252812e+03[39m
     16 Linear |R| = [33m2.252805e+03[39m
     17 Linear |R| = [33m2.245248e+03[39m
     18 Linear |R| = [33m2.245240e+03[39m
     19 Linear |R| = [33m2.245186e+03[39m
     20 Linear |R| = [33m2.211863e+03[39m
  Linear solve did not converge due to DIVERGED_ITS iterations 20
 3 Nonlinear |R| = [33m2.421599e+03[39m
      0 Linear |R| = [32m2.421599e+03[39m
      1 Linear |R| = [33m2.407342e+03[39m
      2 Linear |R| = [33m2.390335e+03[39m
      3 Linear |R| = [33m2.377352e+03[39m
      4 Linear |R| = [33m2.377259e+03[39m
      5 Linear |R| = [33m2.323044e+03[39m
      6 Linear |R| = [33m2.317087e+03[39m
      7 Linear |R| = [33m2.285347e+03[39m
      8 Linear |R| = [33m2.284582e+03[39m
      9 Linear |R| = [33m2.283794e+03[39m
     10 Linear |R| = [33m2.283448e+03[39m
     11 Linear |R| = [33m2.281253e+03[39m
     12 Linear |R| = [33m2.275962e+03[39m
     13 Linear |R| = [33m2.209800e+03[39m
     14 Linear |R| = [33m2.209625e+03[39m
     15 Linear |R| = [33m2.198785e+03[39m
     16 Linear |R| = [33m2.190250e+03[39m
     17 Linear |R| = [33m2.163076e+03[39m
     18 Linear |R| = [33m2.162625e+03[39m
     19 Linear |R| = [33m2.139176e+03[39m
     20 Linear |R| = [33m2.135644e+03[39m
  Linear solve did not converge due to DIVERGED_ITS iterations 20
Nonlinear solve did not converge due to DIVERGED_LINE_SEARCH iterations 3
[31m Solve Did NOT Converge![39m
Aborting as solve did not converge

Solve failed, cutting timestep.

Time Step 2, time = 13.4868, dt = 3.48678
 0 Nonlinear |R| = [32m3.227676e+03[39m
      0 Linear |R| = [32m3.227676e+03[39m
      1 Linear |R| = [32m3.019999e+03[39m
      2 Linear |R| = [33m2.938745e+03[39m
      3 Linear |R| = [33m2.933515e+03[39m
      4 Linear |R| = [33m2.929647e+03[39m
      5 Linear |R| = [33m2.916970e+03[39m
      6 Linear |R| = [33m2.903104e+03[39m
      7 Linear |R| = [33m2.833805e+03[39m
      8 Linear |R| = [33m2.746658e+03[39m
      9 Linear |R| = [33m2.693522e+03[39m
     10 Linear |R| = [33m2.688956e+03[39m
     11 Linear |R| = [33m2.688356e+03[39m
     12 Linear |R| = [33m2.675913e+03[39m
     13 Linear |R| = [33m2.608580e+03[39m
     14 Linear |R| = [33m2.594416e+03[39m
     15 Linear |R| = [33m2.592926e+03[39m
     16 Linear |R| = [33m2.489611e+03[39m
     17 Linear |R| = [33m2.455632e+03[39m
     18 Linear |R| = [33m2.440634e+03[39m
     19 Linear |R| = [33m2.440077e+03[39m
     20 Linear |R| = [33m2.428453e+03[39m
  Linear solve did not converge due to DIVERGED_ITS iterations 20
 1 Nonlinear |R| = [32m2.198615e+03[39m
      0 Linear |R| = [32m2.198615e+03[39m
      1 Linear |R| = [33m2.192536e+03[39m
      2 Linear |R| = [33m2.182306e+03[39m
      3 Linear |R| = [33m2.181581e+03[39m
      4 Linear |R| = [33m2.171392e+03[39m
      5 Linear |R| = [33m2.086523e+03[39m
      6 Linear |R| = [33m2.082174e+03[39m
      7 Linear |R| = [33m2.058686e+03[39m
      8 Linear |R| = [33m2.053818e+03[39m
      9 Linear |R| = [33m2.053805e+03[39m
     10 Linear |R| = [33m2.041409e+03[39m
     11 Linear |R| = [33m2.026517e+03[39m
     12 Linear |R| = [33m1.939533e+03[39m
     13 Linear |R| = [33m1.913918e+03[39m
     14 Linear |R| = [33m1.909271e+03[39m
     15 Linear |R| = [33m1.908026e+03[39m
     16 Linear |R| = [33m1.903976e+03[39m
     17 Linear |R| = [33m1.849391e+03[39m
     18 Linear |R| = [33m1.848019e+03[39m
     19 Linear |R| = [33m1.815844e+03[39m
     20 Linear |R| = [33m1.811838e+03[39m
  Linear solve did not converge due to DIVERGED_ITS iterations 20
 2 Nonlinear |R| = [33m2.198615e+03[39m
      0 Linear |R| = [32m2.198615e+03[39m
      1 Linear |R| = [33m2.196277e+03[39m
      2 Linear |R| = [33m2.193458e+03[39m
      3 Linear |R| = [33m2.148837e+03[39m
      4 Linear |R| = [33m2.137464e+03[39m
      5 Linear |R| = [33m2.080809e+03[39m
      6 Linear |R| = [33m2.060287e+03[39m
      7 Linear |R| = [33m2.025916e+03[39m
      8 Linear |R| = [33m2.025861e+03[39m
      9 Linear |R| = [33m2.019206e+03[39m
     10 Linear |R| = [33m2.019032e+03[39m
     11 Linear |R| = [33m2.015741e+03[39m
     12 Linear |R| = [33m1.956727e+03[39m
     13 Linear |R| = [33m1.925742e+03[39m
     14 Linear |R| = [33m1.925740e+03[39m
     15 Linear |R| = [33m1.922827e+03[39m
     16 Linear |R| = [33m1.908531e+03[39m
     17 Linear |R| = [33m1.889496e+03[39m
     18 Linear |R| = [33m1.867848e+03[39m
     19 Linear |R| = [33m1.867221e+03[39m
     20 Linear |R| = [33m1.866452e+03[39m
  Linear solve did not converge due to DIVERGED_ITS iterations 20
 3 Nonlinear |R| = [33m2.198615e+03[39m
      0 Linear |R| = [32m2.198615e+03[39m
      1 Linear |R| = [33m2.198248e+03[39m
      2 Linear |R| = [33m2.189129e+03[39m
      3 Linear |R| = [33m2.166359e+03[39m
      4 Linear |R| = [33m2.138993e+03[39m
      5 Linear |R| = [33m2.138911e+03[39m
      6 Linear |R| = [33m2.125578e+03[39m
      7 Linear |R| = [33m2.124050e+03[39m
      8 Linear |R| = [33m2.118646e+03[39m
      9 Linear |R| = [33m2.109824e+03[39m
     10 Linear |R| = [33m2.109405e+03[39m
     11 Linear |R| = [33m2.097055e+03[39m
     12 Linear |R| = [33m2.096552e+03[39m
     13 Linear |R| = [33m2.044807e+03[39m
     14 Linear |R| = [33m1.964005e+03[39m
     15 Linear |R| = [33m1.936944e+03[39m
     16 Linear |R| = [33m1.901483e+03[39m
     17 Linear |R| = [33m1.885582e+03[39m
     18 Linear |R| = [33m1.882690e+03[39m
     19 Linear |R| = [33m1.867004e+03[39m
     20 Linear |R| = [33m1.866335e+03[39m
  Linear solve did not converge due to DIVERGED_ITS iterations 20
 4 Nonlinear |R| = [33m2.198602e+03[39m
      0 Linear |R| = [32m2.198602e+03[39m
      1 Linear |R| = [33m2.183353e+03[39m
      2 Linear |R| = [33m2.179294e+03[39m
      3 Linear |R| = [33m2.167821e+03[39m
      4 Linear |R| = [33m2.166625e+03[39m
      5 Linear |R| = [33m2.140541e+03[39m
      6 Linear |R| = [33m2.136785e+03[39m
      7 Linear |R| = [33m2.128025e+03[39m
      8 Linear |R| = [33m2.095145e+03[39m
      9 Linear |R| = [33m2.094516e+03[39m
     10 Linear |R| = [33m2.093201e+03[39m
     11 Linear |R| = [33m2.086614e+03[39m
     12 Linear |R| = [33m2.085694e+03[39m
     13 Linear |R| = [33m2.065618e+03[39m
     14 Linear |R| = [33m2.064797e+03[39m
     15 Linear |R| = [33m2.052704e+03[39m
     16 Linear |R| = [33m2.051019e+03[39m
     17 Linear |R| = [33m2.039919e+03[39m
     18 Linear |R| = [33m1.995861e+03[39m
     19 Linear |R| = [33m1.983376e+03[39m
     20 Linear |R| = [33m1.936886e+03[39m
  Linear solve did not converge due to DIVERGED_ITS iterations 20
 5 Nonlinear |R| = [33m2.198602e+03[39m
      0 Linear |R| = [32m2.198602e+03[39m
      1 Linear |R| = [33m2.190192e+03[39m
      2 Linear |R| = [33m2.157800e+03[39m
      3 Linear |R| = [33m2.153247e+03[39m
      4 Linear |R| = [33m2.151509e+03[39m
      5 Linear |R| = [33m2.119629e+03[39m
      6 Linear |R| = [33m2.117213e+03[39m
      7 Linear |R| = [33m2.113526e+03[39m
      8 Linear |R| = [33m2.112345e+03[39m
      9 Linear |R| = [33m2.107536e+03[39m
     10 Linear |R| = [33m2.097448e+03[39m
     11 Linear |R| = [33m2.095787e+03[39m
     12 Linear |R| = [33m2.088021e+03[39m
     13 Linear |R| = [33m2.052931e+03[39m
     14 Linear |R| = [33m2.021334e+03[39m
     15 Linear |R| = [33m2.002755e+03[39m
     16 Linear |R| = [33m1.994835e+03[39m
     17 Linear |R| = [33m1.989923e+03[39m
     18 Linear |R| = [33m1.987372e+03[39m
     19 Linear |R| = [33m1.959085e+03[39m
     20 Linear |R| = [33m1.905579e+03[39m
  Linear solve did not converge due to DIVERGED_ITS iterations 20
 6 Nonlinear |R| = [33m2.198602e+03[39m
      0 Linear |R| = [32m2.198602e+03[39m
      1 Linear |R| = [33m2.191417e+03[39m
      2 Linear |R| = [33m2.164818e+03[39m
      3 Linear |R| = [33m2.164816e+03[39m
      4 Linear |R| = [33m2.164796e+03[39m
      5 Linear |R| = [33m2.139632e+03[39m
      6 Linear |R| = [33m2.139614e+03[39m
      7 Linear |R| = [33m2.129455e+03[39m
      8 Linear |R| = [33m2.126887e+03[39m
      9 Linear |R| = [33m2.122537e+03[39m
     10 Linear |R| = [33m2.111413e+03[39m
     11 Linear |R| = [33m2.110845e+03[39m
     12 Linear |R| = [33m2.105707e+03[39m
     13 Linear |R| = [33m2.097853e+03[39m
     14 Linear |R| = [33m2.094267e+03[39m
     15 Linear |R| = [33m2.085005e+03[39m
     16 Linear |R| = [33m2.057087e+03[39m
     17 Linear |R| = [33m2.055077e+03[39m
     18 Linear |R| = [33m2.051968e+03[39m
     19 Linear |R| = [33m2.048562e+03[39m
     20 Linear |R| = [33m2.040083e+03[39m
  Linear solve did not converge due to DIVERGED_ITS iterations 20
 7 Nonlinear |R| = [33m2.198602e+03[39m
      0 Linear |R| = [32m2.198602e+03[39m
      1 Linear |R| = [33m2.186847e+03[39m
      2 Linear |R| = [33m2.163290e+03[39m
      3 Linear |R| = [33m2.134061e+03[39m
      4 Linear |R| = [33m2.130924e+03[39m
      5 Linear |R| = [33m2.094340e+03[39m
      6 Linear |R| = [33m2.091073e+03[39m
      7 Linear |R| = [33m2.086664e+03[39m
      8 Linear |R| = [33m2.086507e+03[39m
      9 Linear |R| = [33m2.069219e+03[39m
     10 Linear |R| = [33m2.069136e+03[39m
     11 Linear |R| = [33m2.068321e+03[39m
     12 Linear |R| = [33m2.061963e+03[39m
     13 Linear |R| = [33m2.052384e+03[39m
     14 Linear |R| = [33m2.031319e+03[39m
     15 Linear |R| = [33m2.028069e+03[39m
     16 Linear |R| = [33m2.027016e+03[39m
     17 Linear |R| = [33m2.026658e+03[39m
     18 Linear |R| = [33m2.024876e+03[39m
     19 Linear |R| = [33m2.015246e+03[39m
     20 Linear |R| = [33m2.012098e+03[39m
  Linear solve did not converge due to DIVERGED_ITS iterations 20
 8 Nonlinear |R| = [33m2.198602e+03[39m
      0 Linear |R| = [32m2.198602e+03[39m
      1 Linear |R| = [33m2.189592e+03[39m
      2 Linear |R| = [33m2.161917e+03[39m
      3 Linear |R| = [33m2.156311e+03[39m
      4 Linear |R| = [33m2.118366e+03[39m
      5 Linear |R| = [33m2.113212e+03[39m
      6 Linear |R| = [33m2.111310e+03[39m
      7 Linear |R| = [33m2.109943e+03[39m
      8 Linear |R| = [33m2.104803e+03[39m
      9 Linear |R| = [33m2.104803e+03[39m
     10 Linear |R| = [33m2.104747e+03[39m
     11 Linear |R| = [33m2.103916e+03[39m
     12 Linear |R| = [33m2.103484e+03[39m
     13 Linear |R| = [33m2.084220e+03[39m
     14 Linear |R| = [33m2.058498e+03[39m
     15 Linear |R| = [33m2.051444e+03[39m
     16 Linear |R| = [33m2.039119e+03[39m
     17 Linear |R| = [33m2.036372e+03[39m
     18 Linear |R| = [33m2.032148e+03[39m
     19 Linear |R| = [33m2.018693e+03[39m
     20 Linear |R| = [33m1.956288e+03[39m
  Linear solve did not converge due to DIVERGED_ITS iterations 20
Nonlinear solve did not converge due to DIVERGED_LINE_SEARCH iterations 8
[31m Solve Did NOT Converge![39m
Aborting as solve did not converge

Solve failed, cutting timestep.

Time Step 2, time = 13.1381, dt = 3.13811
 0 Nonlinear |R| = [32m3.227676e+03[39m
      0 Linear |R| = [32m3.227676e+03[39m
      1 Linear |R| = [32m3.061123e+03[39m
      2 Linear |R| = [33m2.957882e+03[39m
      3 Linear |R| = [33m2.953639e+03[39m
      4 Linear |R| = [33m2.902695e+03[39m
      5 Linear |R| = [33m2.897872e+03[39m
      6 Linear |R| = [33m2.862010e+03[39m
      7 Linear |R| = [33m2.861612e+03[39m
      8 Linear |R| = [33m2.843718e+03[39m
      9 Linear |R| = [33m2.828052e+03[39m
     10 Linear |R| = [33m2.766390e+03[39m
     11 Linear |R| = [33m2.764888e+03[39m
     12 Linear |R| = [33m2.727624e+03[39m
     13 Linear |R| = [33m2.722606e+03[39m
     14 Linear |R| = [33m2.687432e+03[39m
     15 Linear |R| = [33m2.680993e+03[39m
     16 Linear |R| = [33m2.638522e+03[39m
     17 Linear |R| = [33m2.636561e+03[39m
     18 Linear |R| = [33m2.636031e+03[39m
     19 Linear |R| = [33m2.628361e+03[39m
     20 Linear |R| = [33m2.574675e+03[39m
  Linear solve did not converge due to DIVERGED_ITS iterations 20
 1 Nonlinear |R| = [32m2.550633e+03[39m
      0 Linear |R| = [32m2.550633e+03[39m
      1 Linear |R| = [33m2.550633e+03[39m
      2 Linear |R| = [33m2.492478e+03[39m
      3 Linear |R| = [32m2.278317e+03[39m
      4 Linear |R| = [33m2.269228e+03[39m
      5 Linear |R| = [33m2.269211e+03[39m
      6 Linear |R| = [33m2.267719e+03[39m
      7 Linear |R| = [33m2.223942e+03[39m
      8 Linear |R| = [33m2.202819e+03[39m
      9 Linear |R| = [33m2.201762e+03[39m
     10 Linear |R| = [33m2.200626e+03[39m
     11 Linear |R| = [33m2.200302e+03[39m
     12 Linear |R| = [33m2.199989e+03[39m
     13 Linear |R| = [33m2.199688e+03[39m
     14 Linear |R| = [33m2.193564e+03[39m
     15 Linear |R| = [33m2.186635e+03[39m
     16 Linear |R| = [33m2.183398e+03[39m
     17 Linear |R| = [33m2.158457e+03[39m
     18 Linear |R| = [33m2.155463e+03[39m
     19 Linear |R| = [33m2.155206e+03[39m
     20 Linear |R| = [33m2.152966e+03[39m
  Linear solve did not converge due to DIVERGED_ITS iterations 20
 2 Nonlinear |R| = [33m2.550633e+03[39m
      0 Linear |R| = [32m2.550633e+03[39m
      1 Linear |R| = [33m2.550505e+03[39m
      2 Linear |R| = [32m2.329278e+03[39m
      3 Linear |R| = [33m2.308732e+03[39m
      4 Linear |R| = [33m2.242865e+03[39m
      5 Linear |R| = [33m2.207900e+03[39m
      6 Linear |R| = [33m2.192830e+03[39m
      7 Linear |R| = [33m2.192811e+03[39m
      8 Linear |R| = [33m2.188441e+03[39m
      9 Linear |R| = [33m2.187176e+03[39m
     10 Linear |R| = [33m2.185616e+03[39m
     11 Linear |R| = [33m2.183303e+03[39m
     12 Linear |R| = [33m2.181330e+03[39m
     13 Linear |R| = [33m2.175520e+03[39m
     14 Linear |R| = [33m2.169649e+03[39m
     15 Linear |R| = [33m2.152866e+03[39m
     16 Linear |R| = [33m2.152428e+03[39m
     17 Linear |R| = [33m2.139921e+03[39m
     18 Linear |R| = [33m2.127158e+03[39m
     19 Linear |R| = [33m2.126765e+03[39m
     20 Linear |R| = [33m2.126068e+03[39m
  Linear solve did not converge due to DIVERGED_ITS iterations 20
Nonlinear solve did not converge due to DIVERGED_LINE_SEARCH iterations 2
[31m Solve Did NOT Converge![39m
Aborting as solve did not converge

Solve failed, cutting timestep.

Time Step 2, time = 12.8243, dt = 2.8243
 0 Nonlinear |R| = [32m3.227676e+03[39m
      0 Linear |R| = [32m3.227676e+03[39m
      1 Linear |R| = [32m2.031573e+03[39m
      2 Linear |R| = [33m1.932362e+03[39m
      3 Linear |R| = [33m1.869143e+03[39m
      4 Linear |R| = [33m1.861429e+03[39m
      5 Linear |R| = [33m1.800204e+03[39m
      6 Linear |R| = [33m1.795750e+03[39m
      7 Linear |R| = [33m1.774400e+03[39m
      8 Linear |R| = [33m1.769592e+03[39m
      9 Linear |R| = [33m1.764731e+03[39m
     10 Linear |R| = [33m1.764553e+03[39m
     11 Linear |R| = [33m1.750668e+03[39m
     12 Linear |R| = [33m1.734487e+03[39m
     13 Linear |R| = [33m1.726724e+03[39m
     14 Linear |R| = [33m1.718380e+03[39m
     15 Linear |R| = [33m1.707505e+03[39m
     16 Linear |R| = [33m1.699058e+03[39m
     17 Linear |R| = [33m1.699001e+03[39m
     18 Linear |R| = [33m1.694080e+03[39m
     19 Linear |R| = [33m1.690397e+03[39m
     20 Linear |R| = [33m1.682024e+03[39m
  Linear solve did not converge due to DIVERGED_ITS iterations 20
 1 Nonlinear |R| = [32m1.747266e+03[39m
      0 Linear |R| = [32m1.747266e+03[39m
      1 Linear |R| = [33m1.738534e+03[39m
      2 Linear |R| = [33m1.738211e+03[39m
      3 Linear |R| = [33m1.734326e+03[39m
      4 Linear |R| = [33m1.733611e+03[39m
      5 Linear |R| = [33m1.716627e+03[39m
      6 Linear |R| = [33m1.705117e+03[39m
      7 Linear |R| = [33m1.699071e+03[39m
      8 Linear |R| = [33m1.675785e+03[39m
      9 Linear |R| = [33m1.658498e+03[39m
     10 Linear |R| = [33m1.657813e+03[39m
     11 Linear |R| = [33m1.630476e+03[39m
     12 Linear |R| = [33m1.630407e+03[39m
     13 Linear |R| = [33m1.622870e+03[39m
     14 Linear |R| = [33m1.596988e+03[39m
     15 Linear |R| = [33m1.536201e+03[39m
     16 Linear |R| = [33m1.535425e+03[39m
     17 Linear |R| = [33m1.515251e+03[39m
     18 Linear |R| = [33m1.504956e+03[39m
     19 Linear |R| = [33m1.495138e+03[39m
     20 Linear |R| = [33m1.494041e+03[39m
  Linear solve did not converge due to DIVERGED_ITS iterations 20
Nonlinear solve did not converge due to DIVERGED_LINE_SEARCH iterations 1
[31m Solve Did NOT Converge![39m
Aborting as solve did not converge

Solve failed, cutting timestep.

Time Step 2, time = 12.5419, dt = 2.54187
 0 Nonlinear |R| = [32m3.227676e+03[39m
      0 Linear |R| = [32m3.227676e+03[39m
      1 Linear |R| = [32m2.162935e+03[39m
      2 Linear |R| = [32m1.929265e+03[39m
      3 Linear |R| = [33m1.874588e+03[39m
      4 Linear |R| = [33m1.856379e+03[39m
      5 Linear |R| = [33m1.821127e+03[39m
      6 Linear |R| = [33m1.818978e+03[39m
      7 Linear |R| = [33m1.818572e+03[39m
      8 Linear |R| = [33m1.801008e+03[39m
      9 Linear |R| = [33m1.789001e+03[39m
     10 Linear |R| = [33m1.757029e+03[39m
     11 Linear |R| = [33m1.738042e+03[39m
     12 Linear |R| = [33m1.715730e+03[39m
     13 Linear |R| = [33m1.714217e+03[39m
     14 Linear |R| = [33m1.709311e+03[39m
     15 Linear |R| = [33m1.703092e+03[39m
     16 Linear |R| = [33m1.700305e+03[39m
     17 Linear |R| = [33m1.679256e+03[39m
     18 Linear |R| = [33m1.663360e+03[39m
     19 Linear |R| = [33m1.662714e+03[39m
     20 Linear |R| = [33m1.660681e+03[39m
  Linear solve did not converge due to DIVERGED_ITS iterations 20
 1 Nonlinear |R| = [32m1.310932e+03[39m
      0 Linear |R| = [32m1.310932e+03[39m
      1 Linear |R| = [33m1.310125e+03[39m
      2 Linear |R| = [33m1.282142e+03[39m
      3 Linear |R| = [33m1.275804e+03[39m
      4 Linear |R| = [33m1.274458e+03[39m
      5 Linear |R| = [33m1.273531e+03[39m
      6 Linear |R| = [33m1.251367e+03[39m
      7 Linear |R| = [33m1.218037e+03[39m
      8 Linear |R| = [33m1.207010e+03[39m
      9 Linear |R| = [33m1.189777e+03[39m
     10 Linear |R| = [33m1.189331e+03[39m
     11 Linear |R| = [33m1.187656e+03[39m
     12 Linear |R| = [33m1.183130e+03[39m
     13 Linear |R| = [33m1.182755e+03[39m
     14 Linear |R| = [33m1.182263e+03[39m
     15 Linear |R| = [33m1.181485e+03[39m
     16 Linear |R| = [33m1.181115e+03[39m
     17 Linear |R| = [33m1.173557e+03[39m
     18 Linear |R| = [33m1.147699e+03[39m
     19 Linear |R| = [33m1.145179e+03[39m
     20 Linear |R| = [33m1.139477e+03[39m
  Linear solve did not converge due to DIVERGED_ITS iterations 20
 2 Nonlinear |R| = [33m1.310932e+03[39m
      0 Linear |R| = [32m1.310932e+03[39m
      1 Linear |R| = [33m1.310171e+03[39m
      2 Linear |R| = [33m1.298833e+03[39m
      3 Linear |R| = [33m1.282233e+03[39m
      4 Linear |R| = [33m1.273980e+03[39m
      5 Linear |R| = [33m1.271764e+03[39m
      6 Linear |R| = [33m1.254121e+03[39m
      7 Linear |R| = [33m1.248042e+03[39m
      8 Linear |R| = [33m1.234398e+03[39m
      9 Linear |R| = [33m1.219876e+03[39m
     10 Linear |R| = [33m1.218008e+03[39m
     11 Linear |R| = [33m1.197997e+03[39m
     12 Linear |R| = [33m1.196564e+03[39m
     13 Linear |R| = [33m1.191897e+03[39m
     14 Linear |R| = [33m1.182020e+03[39m
     15 Linear |R| = [33m1.177217e+03[39m
     16 Linear |R| = [33m1.167813e+03[39m
     17 Linear |R| = [33m1.164540e+03[39m
     18 Linear |R| = [33m1.163587e+03[39m
     19 Linear |R| = [33m1.150445e+03[39m
     20 Linear |R| = [33m1.146006e+03[39m
  Linear solve did not converge due to DIVERGED_ITS iterations 20
 3 Nonlinear |R| = [33m1.310885e+03[39m
      0 Linear |R| = [32m1.310885e+03[39m
      1 Linear |R| = [33m1.305982e+03[39m
      2 Linear |R| = [33m1.305250e+03[39m
      3 Linear |R| = [32m1.212812e+03[39m
      4 Linear |R| = [33m1.200602e+03[39m
      5 Linear |R| = [33m1.194159e+03[39m
      6 Linear |R| = [33m1.193024e+03[39m
      7 Linear |R| = [33m1.181751e+03[39m
      8 Linear |R| = [33m1.152132e+03[39m
      9 Linear |R| = [33m1.133190e+03[39m
     10 Linear |R| = [33m1.131327e+03[39m
     11 Linear |R| = [33m1.119059e+03[39m
     12 Linear |R| = [33m1.118530e+03[39m
     13 Linear |R| = [33m1.107268e+03[39m
     14 Linear |R| = [33m1.103221e+03[39m
     15 Linear |R| = [33m1.102697e+03[39m
     16 Linear |R| = [33m1.100014e+03[39m
     17 Linear |R| = [33m1.098620e+03[39m
     18 Linear |R| = [33m1.085262e+03[39m
     19 Linear |R| = [33m1.076926e+03[39m
     20 Linear |R| = [33m1.076289e+03[39m
  Linear solve did not converge due to DIVERGED_ITS iterations 20
 4 Nonlinear |R| = [33m1.310885e+03[39m
      0 Linear |R| = [32m1.310885e+03[39m
      1 Linear |R| = [33m1.310862e+03[39m
      2 Linear |R| = [33m1.258373e+03[39m
      3 Linear |R| = [33m1.240788e+03[39m
      4 Linear |R| = [33m1.239455e+03[39m
      5 Linear |R| = [33m1.235600e+03[39m
      6 Linear |R| = [33m1.220469e+03[39m
      7 Linear |R| = [33m1.213244e+03[39m
      8 Linear |R| = [33m1.210398e+03[39m
      9 Linear |R| = [33m1.199798e+03[39m
     10 Linear |R| = [33m1.161103e+03[39m
     11 Linear |R| = [33m1.160555e+03[39m
     12 Linear |R| = [33m1.154485e+03[39m
     13 Linear |R| = [33m1.147198e+03[39m
     14 Linear |R| = [33m1.144765e+03[39m
     15 Linear |R| = [33m1.141959e+03[39m
     16 Linear |R| = [33m1.128909e+03[39m
     17 Linear |R| = [33m1.128706e+03[39m
     18 Linear |R| = [33m1.121140e+03[39m
     19 Linear |R| = [33m1.096533e+03[39m
     20 Linear |R| = [33m1.093896e+03[39m
  Linear solve did not converge due to DIVERGED_ITS iterations 20
 5 Nonlinear |R| = [33m1.310885e+03[39m
      0 Linear |R| = [32m1.310885e+03[39m
      1 Linear |R| = [33m1.310768e+03[39m
      2 Linear |R| = [33m1.309839e+03[39m
      3 Linear |R| = [33m1.309578e+03[39m
      4 Linear |R| = [33m1.303084e+03[39m
      5 Linear |R| = [33m1.294751e+03[39m
      6 Linear |R| = [33m1.294736e+03[39m
      7 Linear |R| = [33m1.277428e+03[39m
      8 Linear |R| = [33m1.214081e+03[39m
      9 Linear |R| = [33m1.197492e+03[39m
     10 Linear |R| = [33m1.193060e+03[39m
     11 Linear |R| = [33m1.189526e+03[39m
     12 Linear |R| = [33m1.171803e+03[39m
     13 Linear |R| = [33m1.162893e+03[39m
     14 Linear |R| = [33m1.158285e+03[39m
     15 Linear |R| = [33m1.157233e+03[39m
     16 Linear |R| = [33m1.155963e+03[39m
     17 Linear |R| = [33m1.148838e+03[39m
     18 Linear |R| = [33m1.104659e+03[39m
     19 Linear |R| = [33m1.086520e+03[39m
     20 Linear |R| = [33m1.086476e+03[39m
  Linear solve did not converge due to DIVERGED_ITS iterations 20
 6 Nonlinear |R| = [33m1.310841e+03[39m
      0 Linear |R| = [32m1.310841e+03[39m
      1 Linear |R| = [33m1.310794e+03[39m
      2 Linear |R| = [33m1.249626e+03[39m
      3 Linear |R| = [33m1.247799e+03[39m
      4 Linear |R| = [33m1.240351e+03[39m
      5 Linear |R| = [33m1.239357e+03[39m
      6 Linear |R| = [33m1.239281e+03[39m
      7 Linear |R| = [33m1.238977e+03[39m
      8 Linear |R| = [33m1.232029e+03[39m
      9 Linear |R| = [33m1.207129e+03[39m
     10 Linear |R| = [33m1.203455e+03[39m
     11 Linear |R| = [33m1.183447e+03[39m
     12 Linear |R| = [33m1.183439e+03[39m
     13 Linear |R| = [33m1.183008e+03[39m
     14 Linear |R| = [33m1.165539e+03[39m
     15 Linear |R| = [33m1.164576e+03[39m
     16 Linear |R| = [33m1.161143e+03[39m
     17 Linear |R| = [33m1.158990e+03[39m
     18 Linear |R| = [33m1.155416e+03[39m
     19 Linear |R| = [33m1.152705e+03[39m
     20 Linear |R| = [33m1.141800e+03[39m
  Linear solve did not converge due to DIVERGED_ITS iterations 20
 7 Nonlinear |R| = [33m1.310841e+03[39m
      0 Linear |R| = [32m1.310841e+03[39m
      1 Linear |R| = [33m1.310818e+03[39m
      2 Linear |R| = [32m1.204670e+03[39m
      3 Linear |R| = [33m1.203812e+03[39m
      4 Linear |R| = [33m1.199090e+03[39m
      5 Linear |R| = [33m1.198625e+03[39m
      6 Linear |R| = [33m1.194970e+03[39m
      7 Linear |R| = [33m1.186452e+03[39m
      8 Linear |R| = [33m1.181307e+03[39m
      9 Linear |R| = [33m1.178459e+03[39m
     10 Linear |R| = [33m1.169701e+03[39m
     11 Linear |R| = [33m1.169181e+03[39m
     12 Linear |R| = [33m1.162612e+03[39m
     13 Linear |R| = [33m1.155849e+03[39m
     14 Linear |R| = [33m1.155764e+03[39m
     15 Linear |R| = [33m1.149141e+03[39m
     16 Linear |R| = [33m1.129224e+03[39m
     17 Linear |R| = [33m1.121220e+03[39m
     18 Linear |R| = [33m1.111385e+03[39m
     19 Linear |R| = [33m1.091202e+03[39m
     20 Linear |R| = [33m1.090954e+03[39m
  Linear solve did not converge due to DIVERGED_ITS iterations 20
 8 Nonlinear |R| = [33m1.310841e+03[39m
      0 Linear |R| = [32m1.310841e+03[39m
      1 Linear |R| = [33m1.309716e+03[39m
      2 Linear |R| = [33m1.289569e+03[39m
      3 Linear |R| = [33m1.236630e+03[39m
      4 Linear |R| = [33m1.221212e+03[39m
      5 Linear |R| = [33m1.215954e+03[39m
      6 Linear |R| = [33m1.213392e+03[39m
      7 Linear |R| = [33m1.213380e+03[39m
      8 Linear |R| = [33m1.187561e+03[39m
      9 Linear |R| = [33m1.186680e+03[39m
     10 Linear |R| = [33m1.186493e+03[39m
     11 Linear |R| = [33m1.185961e+03[39m
     12 Linear |R| = [33m1.182814e+03[39m
     13 Linear |R| = [33m1.182339e+03[39m
     14 Linear |R| = [33m1.182338e+03[39m
     15 Linear |R| = [33m1.180543e+03[39m
     16 Linear |R| = [33m1.180517e+03[39m
     17 Linear |R| = [33m1.180462e+03[39m
     18 Linear |R| = [33m1.179714e+03[39m
     19 Linear |R| = [33m1.179433e+03[39m
     20 Linear |R| = [33m1.173741e+03[39m
  Linear solve did not converge due to DIVERGED_ITS iterations 20
Nonlinear solve did not converge due to DIVERGED_LINE_SEARCH iterations 8
[31m Solve Did NOT Converge![39m
Aborting as solve did not converge

Solve failed, cutting timestep.

Time Step 2, time = 12.2877, dt = 2.28768
 0 Nonlinear |R| = [32m3.227676e+03[39m
      0 Linear |R| = [32m3.227676e+03[39m
      1 Linear |R| = [32m1.929491e+03[39m
      2 Linear |R| = [33m1.923251e+03[39m
      3 Linear |R| = [32m1.822384e+03[39m
      4 Linear |R| = [33m1.807666e+03[39m
      5 Linear |R| = [33m1.753438e+03[39m
      6 Linear |R| = [33m1.751199e+03[39m
      7 Linear |R| = [33m1.727800e+03[39m
      8 Linear |R| = [33m1.717304e+03[39m
      9 Linear |R| = [33m1.716927e+03[39m
     10 Linear |R| = [33m1.716679e+03[39m
     11 Linear |R| = [33m1.715380e+03[39m
     12 Linear |R| = [33m1.713830e+03[39m
     13 Linear |R| = [33m1.650866e+03[39m
     14 Linear |R| = [33m1.629663e+03[39m
     15 Linear |R| = [33m1.629139e+03[39m
     16 Linear |R| = [33m1.629056e+03[39m
     17 Linear |R| = [33m1.624826e+03[39m
     18 Linear |R| = [33m1.616422e+03[39m
     19 Linear |R| = [33m1.614881e+03[39m
     20 Linear |R| = [33m1.613499e+03[39m
  Linear solve did not converge due to DIVERGED_ITS iterations 20
 1 Nonlinear |R| = [32m2.872410e+03[39m
      0 Linear |R| = [32m2.872410e+03[39m
      1 Linear |R| = [33m2.872339e+03[39m
      2 Linear |R| = [33m2.857167e+03[39m
      3 Linear |R| = [32m2.683480e+03[39m
      4 Linear |R| = [33m2.653619e+03[39m
      5 Linear |R| = [33m2.626053e+03[39m
      6 Linear |R| = [33m2.625161e+03[39m
      7 Linear |R| = [33m2.623708e+03[39m
      8 Linear |R| = [32m2.449312e+03[39m
      9 Linear |R| = [33m2.449311e+03[39m
     10 Linear |R| = [33m2.448635e+03[39m
     11 Linear |R| = [33m2.443707e+03[39m
     12 Linear |R| = [33m2.443564e+03[39m
     13 Linear |R| = [33m2.429415e+03[39m
     14 Linear |R| = [33m2.428561e+03[39m
     15 Linear |R| = [33m2.401948e+03[39m
     16 Linear |R| = [33m2.401546e+03[39m
     17 Linear |R| = [33m2.380475e+03[39m
     18 Linear |R| = [33m2.362850e+03[39m
     19 Linear |R| = [33m2.355833e+03[39m
     20 Linear |R| = [33m2.350540e+03[39m
  Linear solve did not converge due to DIVERGED_ITS iterations 20
 2 Nonlinear |R| = [33m2.872410e+03[39m
      0 Linear |R| = [32m2.872410e+03[39m
      1 Linear |R| = [33m2.870617e+03[39m
      2 Linear |R| = [33m2.816507e+03[39m
      3 Linear |R| = [33m2.766390e+03[39m
      4 Linear |R| = [33m2.674015e+03[39m
      5 Linear |R| = [33m2.651540e+03[39m
      6 Linear |R| = [33m2.636481e+03[39m
      7 Linear |R| = [33m2.581524e+03[39m
      8 Linear |R| = [33m2.578618e+03[39m
      9 Linear |R| = [33m2.503671e+03[39m
     10 Linear |R| = [33m2.499482e+03[39m
     11 Linear |R| = [33m2.495877e+03[39m
     12 Linear |R| = [33m2.491982e+03[39m
     13 Linear |R| = [33m2.486937e+03[39m
     14 Linear |R| = [33m2.486635e+03[39m
     15 Linear |R| = [33m2.482381e+03[39m
     16 Linear |R| = [33m2.426098e+03[39m
     17 Linear |R| = [33m2.422433e+03[39m
     18 Linear |R| = [33m2.412448e+03[39m
     19 Linear |R| = [33m2.395105e+03[39m
     20 Linear |R| = [33m2.380342e+03[39m
  Linear solve did not converge due to DIVERGED_ITS iterations 20
 3 Nonlinear |R| = [33m2.872338e+03[39m
      0 Linear |R| = [32m2.872338e+03[39m
      1 Linear |R| = [33m2.843451e+03[39m
      2 Linear |R| = [33m2.829867e+03[39m
      3 Linear |R| = [33m2.814968e+03[39m
      4 Linear |R| = [32m2.656476e+03[39m
      5 Linear |R| = [33m2.647552e+03[39m
      6 Linear |R| = [33m2.552894e+03[39m
      7 Linear |R| = [33m2.514210e+03[39m
      8 Linear |R| = [33m2.507311e+03[39m
      9 Linear |R| = [33m2.484202e+03[39m
     10 Linear |R| = [33m2.460793e+03[39m
     11 Linear |R| = [33m2.426131e+03[39m
     12 Linear |R| = [33m2.413775e+03[39m
     13 Linear |R| = [33m2.413749e+03[39m
     14 Linear |R| = [33m2.413557e+03[39m
     15 Linear |R| = [33m2.406367e+03[39m
     16 Linear |R| = [33m2.400195e+03[39m
     17 Linear |R| = [33m2.390204e+03[39m
     18 Linear |R| = [33m2.388517e+03[39m
     19 Linear |R| = [33m2.388335e+03[39m
     20 Linear |R| = [33m2.387763e+03[39m
  Linear solve did not converge due to DIVERGED_ITS iterations 20
 4 Nonlinear |R| = [33m2.872338e+03[39m
      0 Linear |R| = [32m2.872338e+03[39m
      1 Linear |R| = [33m2.825852e+03[39m
      2 Linear |R| = [33m2.825295e+03[39m
      3 Linear |R| = [33m2.824963e+03[39m
      4 Linear |R| = [33m2.805297e+03[39m
      5 Linear |R| = [33m2.798733e+03[39m
      6 Linear |R| = [33m2.794305e+03[39m
      7 Linear |R| = [33m2.794017e+03[39m
      8 Linear |R| = [33m2.791084e+03[39m
      9 Linear |R| = [32m2.614852e+03[39m
     10 Linear |R| = [33m2.593687e+03[39m
     11 Linear |R| = [33m2.591390e+03[39m
     12 Linear |R| = [33m2.565257e+03[39m
     13 Linear |R| = [33m2.554009e+03[39m
     14 Linear |R| = [33m2.467032e+03[39m
     15 Linear |R| = [33m2.464895e+03[39m
     16 Linear |R| = [33m2.441385e+03[39m
     17 Linear |R| = [33m2.428536e+03[39m
     18 Linear |R| = [33m2.388597e+03[39m
     19 Linear |R| = [33m2.386977e+03[39m
     20 Linear |R| = [33m2.386969e+03[39m
  Linear solve did not converge due to DIVERGED_ITS iterations 20
 5 Nonlinear |R| = [33m2.872337e+03[39m
      0 Linear |R| = [32m2.872337e+03[39m
      1 Linear |R| = [33m2.861834e+03[39m
      2 Linear |R| = [33m2.861395e+03[39m
      3 Linear |R| = [33m2.859030e+03[39m
      4 Linear |R| = [33m2.858934e+03[39m
      5 Linear |R| = [33m2.762461e+03[39m
      6 Linear |R| = [33m2.760171e+03[39m
      7 Linear |R| = [33m2.745152e+03[39m
      8 Linear |R| = [32m2.575648e+03[39m
      9 Linear |R| = [33m2.480156e+03[39m
     10 Linear |R| = [33m2.474955e+03[39m
     11 Linear |R| = [33m2.472842e+03[39m
     12 Linear |R| = [33m2.462056e+03[39m
     13 Linear |R| = [33m2.461789e+03[39m
     14 Linear |R| = [33m2.461588e+03[39m
     15 Linear |R| = [33m2.455612e+03[39m
     16 Linear |R| = [33m2.427198e+03[39m
     17 Linear |R| = [33m2.403805e+03[39m
     18 Linear |R| = [33m2.400333e+03[39m
     19 Linear |R| = [33m2.399708e+03[39m
     20 Linear |R| = [33m2.396920e+03[39m
  Linear solve did not converge due to DIVERGED_ITS iterations 20
 6 Nonlinear |R| = [33m2.872337e+03[39m
      0 Linear |R| = [32m2.872337e+03[39m
      1 Linear |R| = [33m2.863372e+03[39m
      2 Linear |R| = [33m2.860631e+03[39m
      3 Linear |R| = [33m2.854737e+03[39m
      4 Linear |R| = [33m2.730572e+03[39m
      5 Linear |R| = [33m2.680621e+03[39m
      6 Linear |R| = [33m2.677491e+03[39m
      7 Linear |R| = [33m2.652920e+03[39m
      8 Linear |R| = [33m2.641778e+03[39m
      9 Linear |R| = [33m2.566864e+03[39m
     10 Linear |R| = [33m2.535750e+03[39m
     11 Linear |R| = [33m2.531177e+03[39m
     12 Linear |R| = [33m2.531169e+03[39m
     13 Linear |R| = [33m2.461808e+03[39m
     14 Linear |R| = [33m2.430227e+03[39m
     15 Linear |R| = [33m2.430221e+03[39m
     16 Linear |R| = [33m2.419533e+03[39m
     17 Linear |R| = [33m2.403464e+03[39m
     18 Linear |R| = [33m2.400870e+03[39m
     19 Linear |R| = [33m2.396330e+03[39m
     20 Linear |R| = [33m2.395713e+03[39m
  Linear solve did not converge due to DIVERGED_ITS iterations 20
 7 Nonlinear |R| = [33m2.872337e+03[39m
      0 Linear |R| = [32m2.872337e+03[39m
      1 Linear |R| = [33m2.864029e+03[39m
      2 Linear |R| = [33m2.858983e+03[39m
      3 Linear |R| = [33m2.790079e+03[39m
      4 Linear |R| = [33m2.790068e+03[39m
      5 Linear |R| = [33m2.762851e+03[39m
      6 Linear |R| = [33m2.750268e+03[39m
      7 Linear |R| = [33m2.708993e+03[39m
      8 Linear |R| = [33m2.699311e+03[39m
      9 Linear |R| = [33m2.692171e+03[39m
     10 Linear |R| = [33m2.670700e+03[39m
     11 Linear |R| = [32m2.457799e+03[39m
     12 Linear |R| = [33m2.457306e+03[39m
     13 Linear |R| = [33m2.454054e+03[39m
     14 Linear |R| = [33m2.433044e+03[39m
     15 Linear |R| = [33m2.421202e+03[39m
     16 Linear |R| = [33m2.416153e+03[39m
     17 Linear |R| = [33m2.416073e+03[39m
     18 Linear |R| = [33m2.392885e+03[39m
     19 Linear |R| = [33m2.392596e+03[39m
     20 Linear |R| = [33m2.391539e+03[39m
  Linear solve did not converge due to DIVERGED_ITS iterations 20
 8 Nonlinear |R| = [33m2.872337e+03[39m
      0 Linear |R| = [32m2.872337e+03[39m
      1 Linear |R| = [33m2.868399e+03[39m
      2 Linear |R| = [33m2.816275e+03[39m
      3 Linear |R| = [33m2.754136e+03[39m
      4 Linear |R| = [33m2.746970e+03[39m
      5 Linear |R| = [32m2.601340e+03[39m
      6 Linear |R| = [33m2.596988e+03[39m
      7 Linear |R| = [33m2.554808e+03[39m
      8 Linear |R| = [33m2.523513e+03[39m
      9 Linear |R| = [33m2.486980e+03[39m
     10 Linear |R| = [33m2.486025e+03[39m
     11 Linear |R| = [33m2.468578e+03[39m
     12 Linear |R| = [33m2.452449e+03[39m
     13 Linear |R| = [33m2.444220e+03[39m
     14 Linear |R| = [33m2.432598e+03[39m
     15 Linear |R| = [33m2.426762e+03[39m
     16 Linear |R| = [33m2.425853e+03[39m
     17 Linear |R| = [33m2.418565e+03[39m
     18 Linear |R| = [33m2.405868e+03[39m
     19 Linear |R| = [33m2.401511e+03[39m
     20 Linear |R| = [33m2.394345e+03[39m
  Linear solve did not converge due to DIVERGED_ITS iterations 20
 9 Nonlinear |R| = [33m2.872337e+03[39m
      0 Linear |R| = [32m2.872337e+03[39m
      1 Linear |R| = [33m2.870634e+03[39m
      2 Linear |R| = [33m2.746669e+03[39m
      3 Linear |R| = [33m2.741576e+03[39m
      4 Linear |R| = [33m2.660380e+03[39m
      5 Linear |R| = [33m2.632037e+03[39m
      6 Linear |R| = [33m2.629743e+03[39m
      7 Linear |R| = [33m2.616381e+03[39m
      8 Linear |R| = [33m2.601155e+03[39m
      9 Linear |R| = [33m2.498288e+03[39m
     10 Linear |R| = [33m2.497856e+03[39m
     11 Linear |R| = [33m2.497624e+03[39m
     12 Linear |R| = [33m2.470110e+03[39m
     13 Linear |R| = [33m2.450372e+03[39m
     14 Linear |R| = [33m2.437644e+03[39m
     15 Linear |R| = [33m2.413682e+03[39m
     16 Linear |R| = [33m2.405692e+03[39m
     17 Linear |R| = [33m2.385101e+03[39m
     18 Linear |R| = [33m2.383026e+03[39m
     19 Linear |R| = [33m2.382719e+03[39m
     20 Linear |R| = [33m2.379939e+03[39m
  Linear solve did not converge due to DIVERGED_ITS iterations 20
Nonlinear solve did not converge due to DIVERGED_LINE_SEARCH iterations 9
[31m Solve Did NOT Converge![39m
Aborting as solve did not converge

Solve failed, cutting timestep.

Time Step 2, time = 12.0589, dt = 2.05891
 0 Nonlinear |R| = [32m3.227676e+03[39m
      0 Linear |R| = [32m3.227676e+03[39m
      1 Linear |R| = [32m2.024551e+03[39m
      2 Linear |R| = [33m2.024523e+03[39m
      3 Linear |R| = [32m1.838843e+03[39m
      4 Linear |R| = [33m1.827845e+03[39m
      5 Linear |R| = [33m1.820247e+03[39m
      6 Linear |R| = [33m1.815454e+03[39m
      7 Linear |R| = [33m1.806884e+03[39m
      8 Linear |R| = [33m1.763210e+03[39m
      9 Linear |R| = [33m1.757451e+03[39m
     10 Linear |R| = [33m1.724337e+03[39m
     11 Linear |R| = [33m1.701182e+03[39m
     12 Linear |R| = [33m1.689581e+03[39m
     13 Linear |R| = [33m1.687153e+03[39m
     14 Linear |R| = [33m1.682184e+03[39m
     15 Linear |R| = [33m1.678620e+03[39m
     16 Linear |R| = [33m1.675293e+03[39m
     17 Linear |R| = [33m1.675292e+03[39m
     18 Linear |R| = [33m1.650465e+03[39m
     19 Linear |R| = [33m1.645755e+03[39m
     20 Linear |R| = [33m1.644498e+03[39m
  Linear solve did not converge due to DIVERGED_ITS iterations 20
 1 Nonlinear |R| = [32m2.449922e+03[39m
      0 Linear |R| = [32m2.449922e+03[39m
      1 Linear |R| = [33m2.447771e+03[39m
      2 Linear |R| = [33m2.447218e+03[39m
      3 Linear |R| = [33m2.435000e+03[39m
      4 Linear |R| = [33m2.434168e+03[39m
      5 Linear |R| = [33m2.433504e+03[39m
      6 Linear |R| = [33m2.432653e+03[39m
      7 Linear |R| = [33m2.413756e+03[39m
      8 Linear |R| = [33m2.390268e+03[39m
      9 Linear |R| = [33m2.375854e+03[39m
     10 Linear |R| = [33m2.375837e+03[39m
     11 Linear |R| = [33m2.374595e+03[39m
     12 Linear |R| = [33m2.374417e+03[39m
     13 Linear |R| = [33m2.374306e+03[39m
     14 Linear |R| = [33m2.371370e+03[39m
     15 Linear |R| = [33m2.360793e+03[39m
     16 Linear |R| = [33m2.360712e+03[39m
     17 Linear |R| = [33m2.360543e+03[39m
     18 Linear |R| = [33m2.354654e+03[39m
     19 Linear |R| = [33m2.340383e+03[39m
     20 Linear |R| = [33m2.339655e+03[39m
  Linear solve did not converge due to DIVERGED_ITS iterations 20
 2 Nonlinear |R| = [33m2.449922e+03[39m
      0 Linear |R| = [32m2.449922e+03[39m
      1 Linear |R| = [33m2.449655e+03[39m
      2 Linear |R| = [33m2.448436e+03[39m
      3 Linear |R| = [33m2.446472e+03[39m
      4 Linear |R| = [33m2.445056e+03[39m
      5 Linear |R| = [33m2.438402e+03[39m
      6 Linear |R| = [33m2.428354e+03[39m
      7 Linear |R| = [33m2.410653e+03[39m
      8 Linear |R| = [33m2.395390e+03[39m
      9 Linear |R| = [33m2.394837e+03[39m
     10 Linear |R| = [33m2.389176e+03[39m
     11 Linear |R| = [33m2.374325e+03[39m
     12 Linear |R| = [33m2.345387e+03[39m
     13 Linear |R| = [33m2.345102e+03[39m
     14 Linear |R| = [33m2.336111e+03[39m
     15 Linear |R| = [33m2.334406e+03[39m
     16 Linear |R| = [33m2.334256e+03[39m
     17 Linear |R| = [33m2.334163e+03[39m
     18 Linear |R| = [33m2.331093e+03[39m
     19 Linear |R| = [33m2.329899e+03[39m
     20 Linear |R| = [33m2.329841e+03[39m
  Linear solve did not converge due to DIVERGED_ITS iterations 20
 3 Nonlinear |R| = [33m2.449922e+03[39m
      0 Linear |R| = [32m2.449922e+03[39m
      1 Linear |R| = [33m2.446813e+03[39m
      2 Linear |R| = [33m2.446802e+03[39m
      3 Linear |R| = [33m2.445209e+03[39m
      4 Linear |R| = [33m2.324092e+03[39m
      5 Linear |R| = [33m2.323718e+03[39m
      6 Linear |R| = [33m2.320485e+03[39m
      7 Linear |R| = [33m2.320048e+03[39m
      8 Linear |R| = [33m2.312474e+03[39m
      9 Linear |R| = [33m2.312291e+03[39m
     10 Linear |R| = [33m2.310364e+03[39m
     11 Linear |R| = [33m2.307731e+03[39m
     12 Linear |R| = [33m2.307641e+03[39m
     13 Linear |R| = [33m2.261031e+03[39m
     14 Linear |R| = [33m2.256210e+03[39m
     15 Linear |R| = [33m2.255300e+03[39m
     16 Linear |R| = [33m2.229653e+03[39m
     17 Linear |R| = [33m2.223373e+03[39m
     18 Linear |R| = [33m2.223106e+03[39m
     19 Linear |R| = [33m2.222800e+03[39m
     20 Linear |R| = [33m2.217958e+03[39m
  Linear solve did not converge due to DIVERGED_ITS iterations 20
Nonlinear solve did not converge due to DIVERGED_LINE_SEARCH iterations 3
[31m Solve Did NOT Converge![39m
Aborting as solve did not converge

Solve failed, cutting timestep.

Time Step 2, time = 11.853, dt = 1.85302
 0 Nonlinear |R| = [32m3.227676e+03[39m
      0 Linear |R| = [32m3.227676e+03[39m
      1 Linear |R| = [32m2.051913e+03[39m
      2 Linear |R| = [32m1.899129e+03[39m
      3 Linear |R| = [33m1.895536e+03[39m
      4 Linear |R| = [33m1.894008e+03[39m
      5 Linear |R| = [33m1.853781e+03[39m
      6 Linear |R| = [33m1.778877e+03[39m
      7 Linear |R| = [33m1.777627e+03[39m
      8 Linear |R| = [33m1.775102e+03[39m
      9 Linear |R| = [33m1.770562e+03[39m
     10 Linear |R| = [33m1.768189e+03[39m
     11 Linear |R| = [33m1.764554e+03[39m
     12 Linear |R| = [33m1.762016e+03[39m
     13 Linear |R| = [33m1.761924e+03[39m
     14 Linear |R| = [33m1.756013e+03[39m
     15 Linear |R| = [33m1.748096e+03[39m
     16 Linear |R| = [33m1.702527e+03[39m
     17 Linear |R| = [33m1.693678e+03[39m
     18 Linear |R| = [33m1.691822e+03[39m
     19 Linear |R| = [33m1.691406e+03[39m
     20 Linear |R| = [33m1.647863e+03[39m
  Linear solve did not converge due to DIVERGED_ITS iterations 20
 1 Nonlinear |R| = [32m2.679720e+03[39m
      0 Linear |R| = [32m2.679720e+03[39m
      1 Linear |R| = [33m2.665562e+03[39m
      2 Linear |R| = [33m2.647969e+03[39m
      3 Linear |R| = [33m2.600566e+03[39m
      4 Linear |R| = [32m2.431712e+03[39m
      5 Linear |R| = [33m2.371788e+03[39m
      6 Linear |R| = [33m2.365164e+03[39m
      7 Linear |R| = [33m2.337601e+03[39m
      8 Linear |R| = [33m2.336973e+03[39m
      9 Linear |R| = [33m2.310805e+03[39m
     10 Linear |R| = [33m2.310676e+03[39m
     11 Linear |R| = [33m2.267131e+03[39m
     12 Linear |R| = [33m2.263170e+03[39m
     13 Linear |R| = [33m2.258513e+03[39m
     14 Linear |R| = [33m2.256426e+03[39m
     15 Linear |R| = [33m2.251409e+03[39m
     16 Linear |R| = [33m2.239230e+03[39m
     17 Linear |R| = [33m2.236604e+03[39m
     18 Linear |R| = [33m2.231737e+03[39m
     19 Linear |R| = [33m2.223860e+03[39m
     20 Linear |R| = [33m2.223817e+03[39m
  Linear solve did not converge due to DIVERGED_ITS iterations 20
 2 Nonlinear |R| = [33m2.679720e+03[39m
      0 Linear |R| = [32m2.679720e+03[39m
      1 Linear |R| = [33m2.672495e+03[39m
      2 Linear |R| = [33m2.651383e+03[39m
      3 Linear |R| = [33m2.605239e+03[39m
      4 Linear |R| = [33m2.593901e+03[39m
      5 Linear |R| = [33m2.472389e+03[39m
      6 Linear |R| = [33m2.458776e+03[39m
      7 Linear |R| = [33m2.457935e+03[39m
      8 Linear |R| = [33m2.454282e+03[39m
      9 Linear |R| = [33m2.453208e+03[39m
     10 Linear |R| = [33m2.403442e+03[39m
     11 Linear |R| = [33m2.399579e+03[39m
     12 Linear |R| = [33m2.292876e+03[39m
     13 Linear |R| = [33m2.283630e+03[39m
     14 Linear |R| = [33m2.264154e+03[39m
     15 Linear |R| = [33m2.263038e+03[39m
     16 Linear |R| = [33m2.257882e+03[39m
     17 Linear |R| = [33m2.254875e+03[39m
     18 Linear |R| = [33m2.217216e+03[39m
     19 Linear |R| = [33m2.216521e+03[39m
     20 Linear |R| = [33m2.212655e+03[39m
  Linear solve did not converge due to DIVERGED_ITS iterations 20
Nonlinear solve did not converge due to DIVERGED_LINE_SEARCH iterations 2
[31m Solve Did NOT Converge![39m
Aborting as solve did not converge

Solve failed, cutting timestep.

Time Step 2, time = 11.6677, dt = 1.66772
 0 Nonlinear |R| = [32m3.227676e+03[39m
      0 Linear |R| = [32m3.227676e+03[39m
      1 Linear |R| = [32m2.166728e+03[39m
      2 Linear |R| = [33m2.133769e+03[39m
      3 Linear |R| = [32m1.910255e+03[39m
      4 Linear |R| = [32m1.742937e+03[39m
      5 Linear |R| = [33m1.742419e+03[39m
      6 Linear |R| = [33m1.742393e+03[39m
      7 Linear |R| = [33m1.730283e+03[39m
      8 Linear |R| = [33m1.730239e+03[39m
      9 Linear |R| = [33m1.730190e+03[39m
     10 Linear |R| = [33m1.730104e+03[39m
     11 Linear |R| = [33m1.708119e+03[39m
     12 Linear |R| = [33m1.707948e+03[39m
     13 Linear |R| = [33m1.706594e+03[39m
     14 Linear |R| = [33m1.706392e+03[39m
     15 Linear |R| = [33m1.706305e+03[39m
     16 Linear |R| = [33m1.704057e+03[39m
     17 Linear |R| = [33m1.696406e+03[39m
     18 Linear |R| = [33m1.687394e+03[39m
     19 Linear |R| = [33m1.686889e+03[39m
     20 Linear |R| = [33m1.685999e+03[39m
  Linear solve did not converge due to DIVERGED_ITS iterations 20
 1 Nonlinear |R| = [32m1.345811e+03[39m
      0 Linear |R| = [32m1.345811e+03[39m
      1 Linear |R| = [33m1.345557e+03[39m
      2 Linear |R| = [33m1.338147e+03[39m
      3 Linear |R| = [33m1.322017e+03[39m
      4 Linear |R| = [33m1.321570e+03[39m
      5 Linear |R| = [33m1.319466e+03[39m
      6 Linear |R| = [33m1.316404e+03[39m
      7 Linear |R| = [32m1.183632e+03[39m
      8 Linear |R| = [33m1.180845e+03[39m
      9 Linear |R| = [33m1.164732e+03[39m
     10 Linear |R| = [33m1.161162e+03[39m
     11 Linear |R| = [33m1.159659e+03[39m
     12 Linear |R| = [33m1.124222e+03[39m
     13 Linear |R| = [33m1.124133e+03[39m
     14 Linear |R| = [33m1.122935e+03[39m
     15 Linear |R| = [33m1.114669e+03[39m
     16 Linear |R| = [33m1.111027e+03[39m
     17 Linear |R| = [33m1.106530e+03[39m
     18 Linear |R| = [33m1.106279e+03[39m
     19 Linear |R| = [33m1.106207e+03[39m
     20 Linear |R| = [33m1.103745e+03[39m
  Linear solve did not converge due to DIVERGED_ITS iterations 20
 2 Nonlinear |R| = [33m1.345811e+03[39m
      0 Linear |R| = [32m1.345811e+03[39m
      1 Linear |R| = [33m1.345557e+03[39m
      2 Linear |R| = [33m1.331890e+03[39m
      3 Linear |R| = [33m1.316601e+03[39m
      4 Linear |R| = [33m1.253275e+03[39m
      5 Linear |R| = [33m1.252280e+03[39m
      6 Linear |R| = [33m1.247376e+03[39m
      7 Linear |R| = [33m1.242597e+03[39m
      8 Linear |R| = [33m1.241542e+03[39m
      9 Linear |R| = [33m1.236253e+03[39m
     10 Linear |R| = [33m1.212986e+03[39m
     11 Linear |R| = [33m1.211257e+03[39m
     12 Linear |R| = [33m1.206225e+03[39m
     13 Linear |R| = [33m1.203162e+03[39m
     14 Linear |R| = [33m1.203155e+03[39m
     15 Linear |R| = [33m1.177563e+03[39m
     16 Linear |R| = [33m1.177466e+03[39m
     17 Linear |R| = [33m1.148027e+03[39m
     18 Linear |R| = [33m1.115994e+03[39m
     19 Linear |R| = [33m1.115619e+03[39m
     20 Linear |R| = [33m1.103880e+03[39m
  Linear solve did not converge due to DIVERGED_ITS iterations 20
 3 Nonlinear |R| = [33m1.345811e+03[39m
      0 Linear |R| = [32m1.345811e+03[39m
      1 Linear |R| = [33m1.340023e+03[39m
      2 Linear |R| = [33m1.336938e+03[39m
      3 Linear |R| = [33m1.320252e+03[39m
      4 Linear |R| = [33m1.278186e+03[39m
      5 Linear |R| = [33m1.271821e+03[39m
      6 Linear |R| = [33m1.267061e+03[39m
      7 Linear |R| = [33m1.265627e+03[39m
      8 Linear |R| = [33m1.233643e+03[39m
      9 Linear |R| = [33m1.233393e+03[39m
     10 Linear |R| = [33m1.213456e+03[39m
     11 Linear |R| = [33m1.210529e+03[39m
     12 Linear |R| = [33m1.184852e+03[39m
     13 Linear |R| = [33m1.138769e+03[39m
     14 Linear |R| = [33m1.136175e+03[39m
     15 Linear |R| = [33m1.114785e+03[39m
     16 Linear |R| = [33m1.112723e+03[39m
     17 Linear |R| = [33m1.111898e+03[39m
     18 Linear |R| = [33m1.110300e+03[39m
     19 Linear |R| = [33m1.103458e+03[39m
     20 Linear |R| = [33m1.102327e+03[39m
  Linear solve did not converge due to DIVERGED_ITS iterations 20
 4 Nonlinear |R| = [33m1.345811e+03[39m
      0 Linear |R| = [32m1.345811e+03[39m
      1 Linear |R| = [33m1.344666e+03[39m
      2 Linear |R| = [33m1.333489e+03[39m
      3 Linear |R| = [33m1.331308e+03[39m
      4 Linear |R| = [33m1.268710e+03[39m
      5 Linear |R| = [33m1.257376e+03[39m
      6 Linear |R| = [33m1.250089e+03[39m
      7 Linear |R| = [33m1.229057e+03[39m
      8 Linear |R| = [33m1.212782e+03[39m
      9 Linear |R| = [33m1.212716e+03[39m
     10 Linear |R| = [33m1.204349e+03[39m
     11 Linear |R| = [33m1.195414e+03[39m
     12 Linear |R| = [33m1.181927e+03[39m
     13 Linear |R| = [33m1.167931e+03[39m
     14 Linear |R| = [33m1.156018e+03[39m
     15 Linear |R| = [33m1.132261e+03[39m
     16 Linear |R| = [33m1.119037e+03[39m
     17 Linear |R| = [33m1.110246e+03[39m
     18 Linear |R| = [33m1.108181e+03[39m
     19 Linear |R| = [33m1.105738e+03[39m
     20 Linear |R| = [33m1.104898e+03[39m
  Linear solve did not converge due to DIVERGED_ITS iterations 20
Nonlinear solve did not converge due to DIVERGED_LINE_SEARCH iterations 4
[31m Solve Did NOT Converge![39m
Aborting as solve did not converge

Solve failed, cutting timestep.

Time Step 2, time = 11.5009, dt = 1.50095
 0 Nonlinear |R| = [32m3.227676e+03[39m
      0 Linear |R| = [32m3.227676e+03[39m
      1 Linear |R| = [32m2.023015e+03[39m
      2 Linear |R| = [33m1.952287e+03[39m
      3 Linear |R| = [33m1.919143e+03[39m
      4 Linear |R| = [33m1.911633e+03[39m
      5 Linear |R| = [33m1.872188e+03[39m
      6 Linear |R| = [33m1.797061e+03[39m
      7 Linear |R| = [33m1.760096e+03[39m
      8 Linear |R| = [33m1.759802e+03[39m
      9 Linear |R| = [33m1.749604e+03[39m
     10 Linear |R| = [33m1.740193e+03[39m
     11 Linear |R| = [33m1.735918e+03[39m
     12 Linear |R| = [33m1.728293e+03[39m
     13 Linear |R| = [33m1.720677e+03[39m
     14 Linear |R| = [33m1.719517e+03[39m
     15 Linear |R| = [33m1.673024e+03[39m
     16 Linear |R| = [33m1.671182e+03[39m
     17 Linear |R| = [33m1.670887e+03[39m
     18 Linear |R| = [33m1.668603e+03[39m
     19 Linear |R| = [33m1.653454e+03[39m
     20 Linear |R| = [33m1.650486e+03[39m
  Linear solve did not converge due to DIVERGED_ITS iterations 20
 1 Nonlinear |R| = [32m2.236538e+03[39m
      0 Linear |R| = [32m2.236538e+03[39m
      1 Linear |R| = [33m2.236466e+03[39m
      2 Linear |R| = [33m2.207743e+03[39m
      3 Linear |R| = [33m2.207197e+03[39m
      4 Linear |R| = [33m2.145792e+03[39m
      5 Linear |R| = [33m2.083678e+03[39m
      6 Linear |R| = [33m2.050175e+03[39m
      7 Linear |R| = [33m2.034472e+03[39m
      8 Linear |R| = [33m1.985380e+03[39m
      9 Linear |R| = [33m1.945094e+03[39m
     10 Linear |R| = [33m1.943853e+03[39m
     11 Linear |R| = [33m1.926826e+03[39m
     12 Linear |R| = [33m1.919015e+03[39m
     13 Linear |R| = [33m1.913446e+03[39m
     14 Linear |R| = [33m1.913327e+03[39m
     15 Linear |R| = [33m1.913068e+03[39m
     16 Linear |R| = [33m1.903322e+03[39m
     17 Linear |R| = [33m1.884426e+03[39m
     18 Linear |R| = [33m1.879492e+03[39m
     19 Linear |R| = [33m1.867349e+03[39m
     20 Linear |R| = [33m1.863451e+03[39m
  Linear solve did not converge due to DIVERGED_ITS iterations 20
 2 Nonlinear |R| = [33m2.236538e+03[39m
      0 Linear |R| = [32m2.236538e+03[39m
      1 Linear |R| = [33m2.228932e+03[39m
      2 Linear |R| = [32m2.091529e+03[39m
      3 Linear |R| = [33m2.073522e+03[39m
      4 Linear |R| = [33m2.069802e+03[39m
      5 Linear |R| = [33m2.058226e+03[39m
      6 Linear |R| = [33m2.055898e+03[39m
      7 Linear |R| = [33m2.055202e+03[39m
      8 Linear |R| = [33m2.054495e+03[39m
      9 Linear |R| = [33m2.053112e+03[39m
     10 Linear |R| = [33m1.999671e+03[39m
     11 Linear |R| = [33m1.935078e+03[39m
     12 Linear |R| = [33m1.934772e+03[39m
     13 Linear |R| = [33m1.881287e+03[39m
     14 Linear |R| = [33m1.877626e+03[39m
     15 Linear |R| = [33m1.872481e+03[39m
     16 Linear |R| = [33m1.866206e+03[39m
     17 Linear |R| = [33m1.866143e+03[39m
     18 Linear |R| = [33m1.865202e+03[39m
     19 Linear |R| = [33m1.864485e+03[39m
     20 Linear |R| = [33m1.860379e+03[39m
  Linear solve did not converge due to DIVERGED_ITS iterations 20
 3 Nonlinear |R| = [33m2.236538e+03[39m
      0 Linear |R| = [32m2.236538e+03[39m
      1 Linear |R| = [33m2.235037e+03[39m
      2 Linear |R| = [32m2.067027e+03[39m
      3 Linear |R| = [33m2.063637e+03[39m
      4 Linear |R| = [33m2.062791e+03[39m
      5 Linear |R| = [33m2.043841e+03[39m
      6 Linear |R| = [33m2.042184e+03[39m
      7 Linear |R| = [33m2.040862e+03[39m
      8 Linear |R| = [33m2.038773e+03[39m
      9 Linear |R| = [33m2.034523e+03[39m
     10 Linear |R| = [33m1.972561e+03[39m
     11 Linear |R| = [33m1.922505e+03[39m
     12 Linear |R| = [33m1.910923e+03[39m
     13 Linear |R| = [33m1.888126e+03[39m
     14 Linear |R| = [33m1.843320e+03[39m
     15 Linear |R| = [33m1.835276e+03[39m
     16 Linear |R| = [33m1.811828e+03[39m
     17 Linear |R| = [33m1.811754e+03[39m
     18 Linear |R| = [33m1.811159e+03[39m
     19 Linear |R| = [33m1.803770e+03[39m
     20 Linear |R| = [33m1.802191e+03[39m
  Linear solve did not converge due to DIVERGED_ITS iterations 20
 4 Nonlinear |R| = [33m2.236538e+03[39m
      0 Linear |R| = [32m2.236538e+03[39m
      1 Linear |R| = [33m2.236514e+03[39m
      2 Linear |R| = [32m2.008367e+03[39m
      3 Linear |R| = [33m1.910852e+03[39m
      4 Linear |R| = [33m1.910032e+03[39m
      5 Linear |R| = [33m1.895587e+03[39m
      6 Linear |R| = [33m1.891908e+03[39m
      7 Linear |R| = [33m1.891532e+03[39m
      8 Linear |R| = [33m1.883046e+03[39m
      9 Linear |R| = [33m1.881961e+03[39m
     10 Linear |R| = [33m1.862768e+03[39m
     11 Linear |R| = [33m1.861714e+03[39m
     12 Linear |R| = [33m1.861482e+03[39m
     13 Linear |R| = [33m1.858617e+03[39m
     14 Linear |R| = [33m1.858527e+03[39m
     15 Linear |R| = [33m1.858506e+03[39m
     16 Linear |R| = [33m1.842691e+03[39m
     17 Linear |R| = [33m1.841973e+03[39m
     18 Linear |R| = [33m1.824512e+03[39m
     19 Linear |R| = [33m1.802186e+03[39m
     20 Linear |R| = [33m1.781075e+03[39m
  Linear solve did not converge due to DIVERGED_ITS iterations 20
 5 Nonlinear |R| = [33m2.236538e+03[39m
      0 Linear |R| = [32m2.236538e+03[39m
      1 Linear |R| = [33m2.236216e+03[39m
      2 Linear |R| = [32m2.120384e+03[39m
      3 Linear |R| = [32m2.010982e+03[39m
      4 Linear |R| = [33m1.997863e+03[39m
      5 Linear |R| = [33m1.973077e+03[39m
      6 Linear |R| = [33m1.962053e+03[39m
      7 Linear |R| = [33m1.926220e+03[39m
      8 Linear |R| = [33m1.919582e+03[39m
      9 Linear |R| = [33m1.919556e+03[39m
     10 Linear |R| = [33m1.917914e+03[39m
     11 Linear |R| = [33m1.910536e+03[39m
     12 Linear |R| = [33m1.903507e+03[39m
     13 Linear |R| = [33m1.868121e+03[39m
     14 Linear |R| = [33m1.867187e+03[39m
     15 Linear |R| = [33m1.863418e+03[39m
     16 Linear |R| = [33m1.853167e+03[39m
     17 Linear |R| = [33m1.852410e+03[39m
     18 Linear |R| = [33m1.839607e+03[39m
     19 Linear |R| = [33m1.837303e+03[39m
     20 Linear |R| = [33m1.831012e+03[39m
  Linear solve did not converge due to DIVERGED_ITS iterations 20
 6 Nonlinear |R| = [33m2.236538e+03[39m
      0 Linear |R| = [32m2.236538e+03[39m
      1 Linear |R| = [33m2.233364e+03[39m
      2 Linear |R| = [33m2.135866e+03[39m
      3 Linear |R| = [33m2.070700e+03[39m
      4 Linear |R| = [33m2.070485e+03[39m
      5 Linear |R| = [33m2.051067e+03[39m
      6 Linear |R| = [33m1.989977e+03[39m
      7 Linear |R| = [33m1.981975e+03[39m
      8 Linear |R| = [33m1.959765e+03[39m
      9 Linear |R| = [33m1.955063e+03[39m
     10 Linear |R| = [33m1.952343e+03[39m
     11 Linear |R| = [33m1.946718e+03[39m
     12 Linear |R| = [33m1.914498e+03[39m
     13 Linear |R| = [33m1.894319e+03[39m
     14 Linear |R| = [33m1.892616e+03[39m
     15 Linear |R| = [33m1.885010e+03[39m
     16 Linear |R| = [33m1.860630e+03[39m
     17 Linear |R| = [33m1.848519e+03[39m
     18 Linear |R| = [33m1.848259e+03[39m
     19 Linear |R| = [33m1.845424e+03[39m
     20 Linear |R| = [33m1.845267e+03[39m
  Linear solve did not converge due to DIVERGED_ITS iterations 20
 7 Nonlinear |R| = [33m2.236538e+03[39m
      0 Linear |R| = [32m2.236538e+03[39m
      1 Linear |R| = [33m2.235424e+03[39m
      2 Linear |R| = [33m2.216790e+03[39m
      3 Linear |R| = [33m2.169185e+03[39m
      4 Linear |R| = [33m2.069894e+03[39m
      5 Linear |R| = [33m2.032891e+03[39m
      6 Linear |R| = [33m2.020431e+03[39m
      7 Linear |R| = [33m1.991350e+03[39m
      8 Linear |R| = [33m1.967961e+03[39m
      9 Linear |R| = [33m1.905530e+03[39m
     10 Linear |R| = [33m1.904796e+03[39m
     11 Linear |R| = [33m1.899035e+03[39m
     12 Linear |R| = [33m1.897687e+03[39m
     13 Linear |R| = [33m1.897629e+03[39m
     14 Linear |R| = [33m1.896810e+03[39m
     15 Linear |R| = [33m1.896390e+03[39m
     16 Linear |R| = [33m1.886954e+03[39m
     17 Linear |R| = [33m1.886705e+03[39m
     18 Linear |R| = [33m1.852560e+03[39m
     19 Linear |R| = [33m1.852246e+03[39m
     20 Linear |R| = [33m1.852090e+03[39m
  Linear solve did not converge due to DIVERGED_ITS iterations 20
 8 Nonlinear |R| = [33m2.236538e+03[39m
      0 Linear |R| = [32m2.236538e+03[39m
      1 Linear |R| = [33m2.236003e+03[39m
      2 Linear |R| = [33m2.178799e+03[39m
      3 Linear |R| = [33m2.175379e+03[39m
      4 Linear |R| = [33m2.125160e+03[39m
      5 Linear |R| = [33m2.086184e+03[39m
      6 Linear |R| = [33m2.081968e+03[39m
      7 Linear |R| = [33m2.066126e+03[39m
      8 Linear |R| = [32m1.935874e+03[39m
      9 Linear |R| = [33m1.934044e+03[39m
     10 Linear |R| = [33m1.908629e+03[39m
     11 Linear |R| = [33m1.906961e+03[39m
     12 Linear |R| = [33m1.904107e+03[39m
     13 Linear |R| = [33m1.878724e+03[39m
     14 Linear |R| = [33m1.877764e+03[39m
     15 Linear |R| = [33m1.877659e+03[39m
     16 Linear |R| = [33m1.873389e+03[39m
     17 Linear |R| = [33m1.838317e+03[39m
     18 Linear |R| = [33m1.829806e+03[39m
     19 Linear |R| = [33m1.829041e+03[39m
     20 Linear |R| = [33m1.828762e+03[39m
  Linear solve did not converge due to DIVERGED_ITS iterations 20
Nonlinear solve did not converge due to DIVERGED_LINE_SEARCH iterations 8
[31m Solve Did NOT Converge![39m
Aborting as solve did not converge

Solve failed, cutting timestep.

Time Step 2, time = 11.3509, dt = 1.35085
 0 Nonlinear |R| = [32m3.227676e+03[39m
      0 Linear |R| = [32m3.227676e+03[39m
      1 Linear |R| = [32m2.300631e+03[39m
      2 Linear |R| = [33m2.278700e+03[39m
      3 Linear |R| = [33m2.258577e+03[39m
      4 Linear |R| = [33m2.212890e+03[39m
      5 Linear |R| = [32m1.930365e+03[39m
      6 Linear |R| = [33m1.909958e+03[39m
      7 Linear |R| = [33m1.818848e+03[39m
      8 Linear |R| = [33m1.773249e+03[39m
      9 Linear |R| = [33m1.709317e+03[39m
     10 Linear |R| = [33m1.709229e+03[39m
     11 Linear |R| = [33m1.696375e+03[39m
     12 Linear |R| = [33m1.695432e+03[39m
     13 Linear |R| = [33m1.692500e+03[39m
     14 Linear |R| = [33m1.689924e+03[39m
     15 Linear |R| = [33m1.689765e+03[39m
     16 Linear |R| = [33m1.680292e+03[39m
     17 Linear |R| = [33m1.680208e+03[39m
     18 Linear |R| = [33m1.676980e+03[39m
     19 Linear |R| = [33m1.676979e+03[39m
     20 Linear |R| = [33m1.676438e+03[39m
  Linear solve did not converge due to DIVERGED_ITS iterations 20
 1 Nonlinear |R| = [32m2.671823e+03[39m
      0 Linear |R| = [32m2.671823e+03[39m
      1 Linear |R| = [33m2.661068e+03[39m
      2 Linear |R| = [33m2.656021e+03[39m
      3 Linear |R| = [32m2.498354e+03[39m
      4 Linear |R| = [33m2.498054e+03[39m
      5 Linear |R| = [33m2.456020e+03[39m
      6 Linear |R| = [33m2.448118e+03[39m
      7 Linear |R| = [33m2.441363e+03[39m
      8 Linear |R| = [33m2.368853e+03[39m
      9 Linear |R| = [33m2.319247e+03[39m
     10 Linear |R| = [33m2.291080e+03[39m
     11 Linear |R| = [33m2.267734e+03[39m
     12 Linear |R| = [33m2.252850e+03[39m
     13 Linear |R| = [33m2.239512e+03[39m
     14 Linear |R| = [33m2.238448e+03[39m
     15 Linear |R| = [33m2.237953e+03[39m
     16 Linear |R| = [33m2.233844e+03[39m
     17 Linear |R| = [33m2.224191e+03[39m
     18 Linear |R| = [33m2.223198e+03[39m
     19 Linear |R| = [33m2.219886e+03[39m
     20 Linear |R| = [33m2.219861e+03[39m
  Linear solve did not converge due to DIVERGED_ITS iterations 20
 2 Nonlinear |R| = [33m2.671823e+03[39m
      0 Linear |R| = [32m2.671823e+03[39m
      1 Linear |R| = [33m2.629690e+03[39m
      2 Linear |R| = [33m2.614875e+03[39m
      3 Linear |R| = [32m2.413995e+03[39m
      4 Linear |R| = [33m2.409015e+03[39m
      5 Linear |R| = [33m2.408392e+03[39m
      6 Linear |R| = [33m2.354529e+03[39m
      7 Linear |R| = [33m2.347944e+03[39m
      8 Linear |R| = [33m2.338842e+03[39m
      9 Linear |R| = [33m2.332074e+03[39m
     10 Linear |R| = [33m2.317149e+03[39m
     11 Linear |R| = [33m2.316518e+03[39m
     12 Linear |R| = [33m2.299220e+03[39m
     13 Linear |R| = [33m2.299026e+03[39m
     14 Linear |R| = [33m2.297373e+03[39m
     15 Linear |R| = [33m2.230083e+03[39m
     16 Linear |R| = [33m2.229780e+03[39m
     17 Linear |R| = [33m2.222714e+03[39m
     18 Linear |R| = [33m2.222307e+03[39m
     19 Linear |R| = [33m2.221641e+03[39m
     20 Linear |R| = [33m2.219871e+03[39m
  Linear solve did not converge due to DIVERGED_ITS iterations 20
 3 Nonlinear |R| = [33m2.671823e+03[39m
      0 Linear |R| = [32m2.671823e+03[39m
      1 Linear |R| = [33m2.669658e+03[39m
      2 Linear |R| = [33m2.622185e+03[39m
      3 Linear |R| = [33m2.614359e+03[39m
      4 Linear |R| = [33m2.512052e+03[39m
      5 Linear |R| = [33m2.492911e+03[39m
      6 Linear |R| = [32m2.334638e+03[39m
      7 Linear |R| = [33m2.326641e+03[39m
      8 Linear |R| = [33m2.314737e+03[39m
      9 Linear |R| = [33m2.308515e+03[39m
     10 Linear |R| = [33m2.246202e+03[39m
     11 Linear |R| = [33m2.231529e+03[39m
     12 Linear |R| = [33m2.230983e+03[39m
     13 Linear |R| = [33m2.230470e+03[39m
     14 Linear |R| = [33m2.225311e+03[39m
     15 Linear |R| = [33m2.224885e+03[39m
     16 Linear |R| = [33m2.222747e+03[39m
     17 Linear |R| = [33m2.221632e+03[39m
     18 Linear |R| = [33m2.221517e+03[39m
     19 Linear |R| = [33m2.221190e+03[39m
     20 Linear |R| = [33m2.216060e+03[39m
  Linear solve did not converge due to DIVERGED_ITS iterations 20
 4 Nonlinear |R| = [33m2.671823e+03[39m
      0 Linear |R| = [32m2.671823e+03[39m
      1 Linear |R| = [33m2.670522e+03[39m
      2 Linear |R| = [33m2.606974e+03[39m
      3 Linear |R| = [33m2.552190e+03[39m
      4 Linear |R| = [33m2.551666e+03[39m
      5 Linear |R| = [33m2.449240e+03[39m
      6 Linear |R| = [33m2.432247e+03[39m
      7 Linear |R| = [33m2.389879e+03[39m
      8 Linear |R| = [33m2.311131e+03[39m
      9 Linear |R| = [33m2.258973e+03[39m
     10 Linear |R| = [33m2.258552e+03[39m
     11 Linear |R| = [33m2.251335e+03[39m
     12 Linear |R| = [33m2.250215e+03[39m
     13 Linear |R| = [33m2.230881e+03[39m
     14 Linear |R| = [33m2.219297e+03[39m
     15 Linear |R| = [33m2.219270e+03[39m
     16 Linear |R| = [33m2.218196e+03[39m
     17 Linear |R| = [33m2.214517e+03[39m
     18 Linear |R| = [33m2.213805e+03[39m
     19 Linear |R| = [33m2.207956e+03[39m
     20 Linear |R| = [33m2.207797e+03[39m
  Linear solve did not converge due to DIVERGED_ITS iterations 20
Nonlinear solve did not converge due to DIVERGED_LINE_SEARCH iterations 4
[31m Solve Did NOT Converge![39m
Aborting as solve did not converge

Solve failed, cutting timestep.

Time Step 2, time = 11.2158, dt = 1.21577
 0 Nonlinear |R| = [32m3.227676e+03[39m
      0 Linear |R| = [32m3.227676e+03[39m
      1 Linear |R| = [32m2.088984e+03[39m
      2 Linear |R| = [33m2.004201e+03[39m
      3 Linear |R| = [33m1.981307e+03[39m
      4 Linear |R| = [33m1.892866e+03[39m
      5 Linear |R| = [33m1.884628e+03[39m
      6 Linear |R| = [33m1.869960e+03[39m
      7 Linear |R| = [33m1.866913e+03[39m
      8 Linear |R| = [33m1.836724e+03[39m
      9 Linear |R| = [33m1.836480e+03[39m
     10 Linear |R| = [33m1.836128e+03[39m
     11 Linear |R| = [33m1.820052e+03[39m
     12 Linear |R| = [33m1.769325e+03[39m
     13 Linear |R| = [33m1.764892e+03[39m
     14 Linear |R| = [33m1.706896e+03[39m
     15 Linear |R| = [33m1.704898e+03[39m
     16 Linear |R| = [33m1.703678e+03[39m
     17 Linear |R| = [33m1.701909e+03[39m
     18 Linear |R| = [33m1.698614e+03[39m
     19 Linear |R| = [33m1.698013e+03[39m
     20 Linear |R| = [33m1.675572e+03[39m
  Linear solve did not converge due to DIVERGED_ITS iterations 20
 1 Nonlinear |R| = [32m2.479173e+03[39m
      0 Linear |R| = [32m2.479173e+03[39m
      1 Linear |R| = [33m2.479128e+03[39m
      2 Linear |R| = [33m2.478319e+03[39m
      3 Linear |R| = [33m2.444893e+03[39m
      4 Linear |R| = [33m2.441861e+03[39m
      5 Linear |R| = [33m2.408542e+03[39m
      6 Linear |R| = [33m2.314002e+03[39m
      7 Linear |R| = [33m2.310720e+03[39m
      8 Linear |R| = [33m2.285207e+03[39m
      9 Linear |R| = [33m2.280617e+03[39m
     10 Linear |R| = [33m2.280470e+03[39m
     11 Linear |R| = [33m2.175715e+03[39m
     12 Linear |R| = [33m2.175167e+03[39m
     13 Linear |R| = [33m2.173527e+03[39m
     14 Linear |R| = [33m2.104026e+03[39m
     15 Linear |R| = [33m2.103681e+03[39m
     16 Linear |R| = [33m2.093672e+03[39m
     17 Linear |R| = [33m2.084966e+03[39m
     18 Linear |R| = [33m2.079445e+03[39m
     19 Linear |R| = [33m2.059474e+03[39m
     20 Linear |R| = [33m2.059202e+03[39m
  Linear solve did not converge due to DIVERGED_ITS iterations 20
 2 Nonlinear |R| = [33m2.479172e+03[39m
      0 Linear |R| = [32m2.479172e+03[39m
      1 Linear |R| = [33m2.470387e+03[39m
      2 Linear |R| = [33m2.405120e+03[39m
      3 Linear |R| = [33m2.354415e+03[39m
      4 Linear |R| = [33m2.331377e+03[39m
      5 Linear |R| = [33m2.330877e+03[39m
      6 Linear |R| = [33m2.242051e+03[39m
      7 Linear |R| = [33m2.234542e+03[39m
      8 Linear |R| = [33m2.199935e+03[39m
      9 Linear |R| = [33m2.199694e+03[39m
     10 Linear |R| = [33m2.196447e+03[39m
     11 Linear |R| = [33m2.189632e+03[39m
     12 Linear |R| = [33m2.149500e+03[39m
     13 Linear |R| = [33m2.142058e+03[39m
     14 Linear |R| = [33m2.137349e+03[39m
     15 Linear |R| = [33m2.121886e+03[39m
     16 Linear |R| = [33m2.121800e+03[39m
     17 Linear |R| = [33m2.118000e+03[39m
     18 Linear |R| = [33m2.075282e+03[39m
     19 Linear |R| = [33m2.071059e+03[39m
     20 Linear |R| = [33m2.061566e+03[39m
  Linear solve did not converge due to DIVERGED_ITS iterations 20
Nonlinear solve did not converge due to DIVERGED_LINE_SEARCH iterations 2
[31m Solve Did NOT Converge![39m
Aborting as solve did not converge

Solve failed, cutting timestep.

Time Step 2, time = 11.0942, dt = 1.09419
 0 Nonlinear |R| = [32m3.227676e+03[39m
      0 Linear |R| = [32m3.227676e+03[39m
      1 Linear |R| = [32m2.024347e+03[39m
      2 Linear |R| = [32m1.862741e+03[39m
      3 Linear |R| = [33m1.849425e+03[39m
      4 Linear |R| = [33m1.811324e+03[39m
      5 Linear |R| = [33m1.772850e+03[39m
      6 Linear |R| = [33m1.772295e+03[39m
      7 Linear |R| = [33m1.757906e+03[39m
      8 Linear |R| = [33m1.723338e+03[39m
      9 Linear |R| = [33m1.719367e+03[39m
     10 Linear |R| = [33m1.715381e+03[39m
     11 Linear |R| = [33m1.704472e+03[39m
     12 Linear |R| = [33m1.702519e+03[39m
     13 Linear |R| = [33m1.682242e+03[39m
     14 Linear |R| = [33m1.678700e+03[39m
     15 Linear |R| = [33m1.677871e+03[39m
     16 Linear |R| = [33m1.677474e+03[39m
     17 Linear |R| = [33m1.677386e+03[39m
     18 Linear |R| = [33m1.672258e+03[39m
     19 Linear |R| = [33m1.671097e+03[39m
     20 Linear |R| = [33m1.658752e+03[39m
  Linear solve did not converge due to DIVERGED_ITS iterations 20
 1 Nonlinear |R| = [32m2.563387e+03[39m
      0 Linear |R| = [32m2.563387e+03[39m
      1 Linear |R| = [33m2.562204e+03[39m
      2 Linear |R| = [33m2.557954e+03[39m
      3 Linear |R| = [33m2.540893e+03[39m
      4 Linear |R| = [32m2.404336e+03[39m
      5 Linear |R| = [33m2.355705e+03[39m
      6 Linear |R| = [33m2.349689e+03[39m
      7 Linear |R| = [33m2.349649e+03[39m
      8 Linear |R| = [33m2.324499e+03[39m
      9 Linear |R| = [33m2.237215e+03[39m
     10 Linear |R| = [33m2.237197e+03[39m
     11 Linear |R| = [33m2.233834e+03[39m
     12 Linear |R| = [33m2.227447e+03[39m
     13 Linear |R| = [33m2.226077e+03[39m
     14 Linear |R| = [33m2.217975e+03[39m
     15 Linear |R| = [33m2.210398e+03[39m
     16 Linear |R| = [33m2.209433e+03[39m
     17 Linear |R| = [33m2.207812e+03[39m
     18 Linear |R| = [33m2.138329e+03[39m
     19 Linear |R| = [33m2.136984e+03[39m
     20 Linear |R| = [33m2.130360e+03[39m
  Linear solve did not converge due to DIVERGED_ITS iterations 20
 2 Nonlinear |R| = [33m2.563387e+03[39m
      0 Linear |R| = [32m2.563387e+03[39m
      1 Linear |R| = [33m2.557397e+03[39m
      2 Linear |R| = [33m2.556992e+03[39m
      3 Linear |R| = [33m2.469087e+03[39m
      4 Linear |R| = [33m2.469057e+03[39m
      5 Linear |R| = [33m2.467896e+03[39m
      6 Linear |R| = [33m2.464165e+03[39m
      7 Linear |R| = [33m2.424909e+03[39m
      8 Linear |R| = [33m2.365682e+03[39m
      9 Linear |R| = [32m2.237290e+03[39m
     10 Linear |R| = [33m2.187320e+03[39m
     11 Linear |R| = [33m2.180193e+03[39m
     12 Linear |R| = [33m2.171049e+03[39m
     13 Linear |R| = [33m2.170581e+03[39m
     14 Linear |R| = [33m2.170174e+03[39m
     15 Linear |R| = [33m2.165999e+03[39m
     16 Linear |R| = [33m2.136634e+03[39m
     17 Linear |R| = [33m2.110575e+03[39m
     18 Linear |R| = [33m2.107507e+03[39m
     19 Linear |R| = [33m2.100206e+03[39m
     20 Linear |R| = [33m2.097635e+03[39m
  Linear solve did not converge due to DIVERGED_ITS iterations 20
 3 Nonlinear |R| = [33m2.563370e+03[39m
      0 Linear |R| = [32m2.563370e+03[39m
      1 Linear |R| = [33m2.528724e+03[39m
      2 Linear |R| = [33m2.503926e+03[39m
      3 Linear |R| = [33m2.494103e+03[39m
      4 Linear |R| = [32m2.368414e+03[39m
      5 Linear |R| = [33m2.329774e+03[39m
      6 Linear |R| = [33m2.304030e+03[39m
      7 Linear |R| = [33m2.254425e+03[39m
      8 Linear |R| = [33m2.179986e+03[39m
      9 Linear |R| = [33m2.177756e+03[39m
     10 Linear |R| = [33m2.156070e+03[39m
     11 Linear |R| = [33m2.152065e+03[39m
     12 Linear |R| = [33m2.151955e+03[39m
     13 Linear |R| = [33m2.125686e+03[39m
     14 Linear |R| = [33m2.123687e+03[39m
     15 Linear |R| = [33m2.122367e+03[39m
     16 Linear |R| = [33m2.112951e+03[39m
     17 Linear |R| = [33m2.102443e+03[39m
     18 Linear |R| = [33m2.091443e+03[39m
     19 Linear |R| = [33m2.087398e+03[39m
     20 Linear |R| = [33m2.086539e+03[39m
  Linear solve did not converge due to DIVERGED_ITS iterations 20
 4 Nonlinear |R| = [33m2.563370e+03[39m
      0 Linear |R| = [32m2.563370e+03[39m
      1 Linear |R| = [33m2.563265e+03[39m
      2 Linear |R| = [33m2.480116e+03[39m
      3 Linear |R| = [33m2.469806e+03[39m
      4 Linear |R| = [32m2.335731e+03[39m
      5 Linear |R| = [33m2.333510e+03[39m
      6 Linear |R| = [33m2.277698e+03[39m
      7 Linear |R| = [33m2.267039e+03[39m
      8 Linear |R| = [33m2.257293e+03[39m
      9 Linear |R| = [33m2.248022e+03[39m
     10 Linear |R| = [33m2.247972e+03[39m
     11 Linear |R| = [33m2.242064e+03[39m
     12 Linear |R| = [33m2.241815e+03[39m
     13 Linear |R| = [33m2.143661e+03[39m
     14 Linear |R| = [33m2.140426e+03[39m
     15 Linear |R| = [33m2.122124e+03[39m
     16 Linear |R| = [33m2.121663e+03[39m
     17 Linear |R| = [33m2.121348e+03[39m
     18 Linear |R| = [33m2.120738e+03[39m
     19 Linear |R| = [33m2.119774e+03[39m
     20 Linear |R| = [33m2.116095e+03[39m
  Linear solve did not converge due to DIVERGED_ITS iterations 20
 5 Nonlinear |R| = [33m2.563370e+03[39m
      0 Linear |R| = [32m2.563370e+03[39m
      1 Linear |R| = [33m2.562076e+03[39m
      2 Linear |R| = [33m2.535480e+03[39m
      3 Linear |R| = [32m2.330747e+03[39m
      4 Linear |R| = [33m2.284576e+03[39m
      5 Linear |R| = [33m2.270613e+03[39m
      6 Linear |R| = [33m2.270445e+03[39m
      7 Linear |R| = [33m2.251702e+03[39m
      8 Linear |R| = [33m2.202196e+03[39m
      9 Linear |R| = [33m2.198760e+03[39m
     10 Linear |R| = [33m2.198616e+03[39m
     11 Linear |R| = [33m2.197863e+03[39m
     12 Linear |R| = [33m2.197532e+03[39m
     13 Linear |R| = [33m2.179660e+03[39m
     14 Linear |R| = [33m2.179658e+03[39m
     15 Linear |R| = [33m2.150516e+03[39m
     16 Linear |R| = [33m2.137168e+03[39m
     17 Linear |R| = [33m2.124920e+03[39m
     18 Linear |R| = [33m2.118602e+03[39m
     19 Linear |R| = [33m2.108394e+03[39m
     20 Linear |R| = [33m2.107418e+03[39m
  Linear solve did not converge due to DIVERGED_ITS iterations 20
Nonlinear solve did not converge due to DIVERGED_LINE_SEARCH iterations 5
[31m Solve Did NOT Converge![39m
Aborting as solve did not converge

Solve failed, cutting timestep.

Time Step 2, time = 10.9848, dt = 0.984771
 0 Nonlinear |R| = [32m3.227676e+03[39m
      0 Linear |R| = [32m3.227676e+03[39m
      1 Linear |R| = [32m2.516015e+03[39m
      2 Linear |R| = [32m2.157669e+03[39m
      3 Linear |R| = [33m2.108560e+03[39m
      4 Linear |R| = [33m2.098235e+03[39m
      5 Linear |R| = [32m1.756747e+03[39m
      6 Linear |R| = [33m1.756706e+03[39m
      7 Linear |R| = [33m1.749823e+03[39m
      8 Linear |R| = [33m1.745701e+03[39m
      9 Linear |R| = [33m1.713872e+03[39m
     10 Linear |R| = [33m1.712204e+03[39m
     11 Linear |R| = [33m1.704697e+03[39m
     12 Linear |R| = [33m1.704675e+03[39m
     13 Linear |R| = [33m1.704476e+03[39m
     14 Linear |R| = [33m1.699622e+03[39m
     15 Linear |R| = [33m1.695160e+03[39m
     16 Linear |R| = [33m1.684086e+03[39m
     17 Linear |R| = [33m1.682977e+03[39m
     18 Linear |R| = [33m1.675387e+03[39m
     19 Linear |R| = [33m1.675127e+03[39m
     20 Linear |R| = [33m1.660719e+03[39m
  Linear solve did not converge due to DIVERGED_ITS iterations 20
 1 Nonlinear |R| = [32m1.351524e+03[39m
      0 Linear |R| = [32m1.351524e+03[39m
      1 Linear |R| = [33m1.345575e+03[39m
      2 Linear |R| = [33m1.321644e+03[39m
      3 Linear |R| = [33m1.308533e+03[39m
      4 Linear |R| = [33m1.288455e+03[39m
      5 Linear |R| = [33m1.273458e+03[39m
      6 Linear |R| = [33m1.273428e+03[39m
      7 Linear |R| = [33m1.273317e+03[39m
      8 Linear |R| = [33m1.266604e+03[39m
      9 Linear |R| = [33m1.215234e+03[39m
     10 Linear |R| = [33m1.172215e+03[39m
     11 Linear |R| = [33m1.168388e+03[39m
     12 Linear |R| = [33m1.160690e+03[39m
     13 Linear |R| = [33m1.150605e+03[39m
     14 Linear |R| = [33m1.146254e+03[39m
     15 Linear |R| = [33m1.146206e+03[39m
     16 Linear |R| = [33m1.145282e+03[39m
     17 Linear |R| = [33m1.144227e+03[39m
     18 Linear |R| = [33m1.126527e+03[39m
     19 Linear |R| = [33m1.110975e+03[39m
     20 Linear |R| = [33m1.108820e+03[39m
  Linear solve did not converge due to DIVERGED_ITS iterations 20
 2 Nonlinear |R| = [33m1.351524e+03[39m
      0 Linear |R| = [32m1.351524e+03[39m
      1 Linear |R| = [33m1.344805e+03[39m
      2 Linear |R| = [33m1.344538e+03[39m
      3 Linear |R| = [33m1.344525e+03[39m
      4 Linear |R| = [33m1.323153e+03[39m
      5 Linear |R| = [33m1.288650e+03[39m
      6 Linear |R| = [33m1.276800e+03[39m
      7 Linear |R| = [33m1.238654e+03[39m
      8 Linear |R| = [33m1.238578e+03[39m
      9 Linear |R| = [33m1.231823e+03[39m
     10 Linear |R| = [33m1.208551e+03[39m
     11 Linear |R| = [33m1.208471e+03[39m
     12 Linear |R| = [33m1.208354e+03[39m
     13 Linear |R| = [33m1.180323e+03[39m
     14 Linear |R| = [33m1.153816e+03[39m
     15 Linear |R| = [33m1.153092e+03[39m
     16 Linear |R| = [33m1.150319e+03[39m
     17 Linear |R| = [33m1.133582e+03[39m
     18 Linear |R| = [33m1.123581e+03[39m
     19 Linear |R| = [33m1.118848e+03[39m
     20 Linear |R| = [33m1.117569e+03[39m
  Linear solve did not converge due to DIVERGED_ITS iterations 20
 3 Nonlinear |R| = [33m1.351524e+03[39m
      0 Linear |R| = [32m1.351524e+03[39m
      1 Linear |R| = [33m1.347494e+03[39m
      2 Linear |R| = [32m1.254166e+03[39m
      3 Linear |R| = [33m1.220125e+03[39m
      4 Linear |R| = [33m1.209455e+03[39m
      5 Linear |R| = [33m1.200490e+03[39m
      6 Linear |R| = [33m1.188198e+03[39m
      7 Linear |R| = [33m1.184893e+03[39m
      8 Linear |R| = [33m1.173562e+03[39m
      9 Linear |R| = [33m1.159400e+03[39m
     10 Linear |R| = [33m1.157124e+03[39m
     11 Linear |R| = [33m1.141641e+03[39m
     12 Linear |R| = [33m1.141441e+03[39m
     13 Linear |R| = [33m1.126906e+03[39m
     14 Linear |R| = [33m1.124527e+03[39m
     15 Linear |R| = [33m1.115356e+03[39m
     16 Linear |R| = [33m1.113955e+03[39m
     17 Linear |R| = [33m1.110539e+03[39m
     18 Linear |R| = [33m1.108952e+03[39m
     19 Linear |R| = [33m1.103418e+03[39m
     20 Linear |R| = [33m1.100763e+03[39m
  Linear solve did not converge due to DIVERGED_ITS iterations 20
 4 Nonlinear |R| = [33m1.351524e+03[39m
      0 Linear |R| = [32m1.351524e+03[39m
      1 Linear |R| = [33m1.348255e+03[39m
      2 Linear |R| = [33m1.331831e+03[39m
      3 Linear |R| = [33m1.265419e+03[39m
      4 Linear |R| = [32m1.165300e+03[39m
      5 Linear |R| = [33m1.164678e+03[39m
      6 Linear |R| = [33m1.164496e+03[39m
      7 Linear |R| = [33m1.159897e+03[39m
      8 Linear |R| = [33m1.159879e+03[39m
      9 Linear |R| = [33m1.152644e+03[39m
     10 Linear |R| = [33m1.127336e+03[39m
     11 Linear |R| = [33m1.127327e+03[39m
     12 Linear |R| = [33m1.127275e+03[39m
     13 Linear |R| = [33m1.123902e+03[39m
     14 Linear |R| = [33m1.123507e+03[39m
     15 Linear |R| = [33m1.123293e+03[39m
     16 Linear |R| = [33m1.119637e+03[39m
     17 Linear |R| = [33m1.109892e+03[39m
     18 Linear |R| = [33m1.108880e+03[39m
     19 Linear |R| = [33m1.100537e+03[39m
     20 Linear |R| = [33m1.099876e+03[39m
  Linear solve did not converge due to DIVERGED_ITS iterations 20
 5 Nonlinear |R| = [33m1.351524e+03[39m
      0 Linear |R| = [32m1.351524e+03[39m
      1 Linear |R| = [33m1.344453e+03[39m
      2 Linear |R| = [33m1.280403e+03[39m
      3 Linear |R| = [33m1.280113e+03[39m
      4 Linear |R| = [33m1.239266e+03[39m
      5 Linear |R| = [33m1.238698e+03[39m
      6 Linear |R| = [33m1.227955e+03[39m
      7 Linear |R| = [33m1.194240e+03[39m
      8 Linear |R| = [33m1.181328e+03[39m
      9 Linear |R| = [33m1.166159e+03[39m
     10 Linear |R| = [33m1.130621e+03[39m
     11 Linear |R| = [33m1.128634e+03[39m
     12 Linear |R| = [33m1.128537e+03[39m
     13 Linear |R| = [33m1.125305e+03[39m
     14 Linear |R| = [33m1.123782e+03[39m
     15 Linear |R| = [33m1.122843e+03[39m
     16 Linear |R| = [33m1.114689e+03[39m
     17 Linear |R| = [33m1.113971e+03[39m
     18 Linear |R| = [33m1.111913e+03[39m
     19 Linear |R| = [33m1.111169e+03[39m
     20 Linear |R| = [33m1.111169e+03[39m
  Linear solve did not converge due to DIVERGED_ITS iterations 20
 6 Nonlinear |R| = [33m1.351524e+03[39m
      0 Linear |R| = [32m1.351524e+03[39m
      1 Linear |R| = [33m1.340956e+03[39m
      2 Linear |R| = [33m1.335045e+03[39m
      3 Linear |R| = [32m1.228378e+03[39m
      4 Linear |R| = [33m1.227689e+03[39m
      5 Linear |R| = [33m1.185294e+03[39m
      6 Linear |R| = [33m1.166258e+03[39m
      7 Linear |R| = [33m1.163868e+03[39m
      8 Linear |R| = [33m1.154231e+03[39m
      9 Linear |R| = [33m1.145972e+03[39m
     10 Linear |R| = [33m1.138555e+03[39m
     11 Linear |R| = [33m1.126808e+03[39m
     12 Linear |R| = [33m1.126600e+03[39m
     13 Linear |R| = [33m1.124460e+03[39m
     14 Linear |R| = [33m1.124432e+03[39m
     15 Linear |R| = [33m1.123990e+03[39m
     16 Linear |R| = [33m1.116198e+03[39m
     17 Linear |R| = [33m1.116193e+03[39m
     18 Linear |R| = [33m1.114911e+03[39m
     19 Linear |R| = [33m1.114904e+03[39m
     20 Linear |R| = [33m1.113368e+03[39m
  Linear solve did not converge due to DIVERGED_ITS iterations 20
 7 Nonlinear |R| = [33m1.351524e+03[39m
      0 Linear |R| = [32m1.351524e+03[39m
      1 Linear |R| = [33m1.351524e+03[39m
      2 Linear |R| = [32m1.243372e+03[39m
      3 Linear |R| = [32m1.156752e+03[39m
      4 Linear |R| = [33m1.141781e+03[39m
      5 Linear |R| = [33m1.141271e+03[39m
      6 Linear |R| = [33m1.141271e+03[39m
      7 Linear |R| = [33m1.139815e+03[39m
      8 Linear |R| = [33m1.134042e+03[39m
      9 Linear |R| = [33m1.131469e+03[39m
     10 Linear |R| = [33m1.130278e+03[39m
     11 Linear |R| = [33m1.130242e+03[39m
     12 Linear |R| = [33m1.129666e+03[39m
     13 Linear |R| = [33m1.129654e+03[39m
     14 Linear |R| = [33m1.129654e+03[39m
     15 Linear |R| = [33m1.127809e+03[39m
     16 Linear |R| = [33m1.126615e+03[39m
     17 Linear |R| = [33m1.125145e+03[39m
     18 Linear |R| = [33m1.124377e+03[39m
     19 Linear |R| = [33m1.123685e+03[39m
     20 Linear |R| = [33m1.114965e+03[39m
  Linear solve did not converge due to DIVERGED_ITS iterations 20
 8 Nonlinear |R| = [33m1.351524e+03[39m
      0 Linear |R| = [32m1.351524e+03[39m
      1 Linear |R| = [33m1.351426e+03[39m
      2 Linear |R| = [33m1.294250e+03[39m
      3 Linear |R| = [32m1.200915e+03[39m
      4 Linear |R| = [33m1.198090e+03[39m
      5 Linear |R| = [33m1.197652e+03[39m
      6 Linear |R| = [33m1.197603e+03[39m
      7 Linear |R| = [33m1.178540e+03[39m
      8 Linear |R| = [33m1.172159e+03[39m
      9 Linear |R| = [33m1.151563e+03[39m
     10 Linear |R| = [33m1.148050e+03[39m
     11 Linear |R| = [33m1.142747e+03[39m
     12 Linear |R| = [33m1.136006e+03[39m
     13 Linear |R| = [33m1.134815e+03[39m
     14 Linear |R| = [33m1.134785e+03[39m
     15 Linear |R| = [33m1.134271e+03[39m
     16 Linear |R| = [33m1.132627e+03[39m
     17 Linear |R| = [33m1.129041e+03[39m
     18 Linear |R| = [33m1.126675e+03[39m
     19 Linear |R| = [33m1.121358e+03[39m
     20 Linear |R| = [33m1.115262e+03[39m
  Linear solve did not converge due to DIVERGED_ITS iterations 20
 9 Nonlinear |R| = [33m1.351524e+03[39m
      0 Linear |R| = [32m1.351524e+03[39m
      1 Linear |R| = [33m1.340391e+03[39m
      2 Linear |R| = [33m1.332176e+03[39m
      3 Linear |R| = [32m1.243112e+03[39m
      4 Linear |R| = [33m1.241878e+03[39m
      5 Linear |R| = [32m1.176602e+03[39m
      6 Linear |R| = [33m1.162960e+03[39m
      7 Linear |R| = [33m1.162915e+03[39m
      8 Linear |R| = [33m1.159815e+03[39m
      9 Linear |R| = [33m1.153443e+03[39m
     10 Linear |R| = [33m1.143327e+03[39m
     11 Linear |R| = [33m1.142348e+03[39m
     12 Linear |R| = [33m1.140988e+03[39m
     13 Linear |R| = [33m1.132927e+03[39m
     14 Linear |R| = [33m1.120766e+03[39m
     15 Linear |R| = [33m1.116088e+03[39m
     16 Linear |R| = [33m1.115686e+03[39m
     17 Linear |R| = [33m1.114478e+03[39m
     18 Linear |R| = [33m1.114006e+03[39m
     19 Linear |R| = [33m1.112447e+03[39m
     20 Linear |R| = [33m1.112305e+03[39m
  Linear solve did not converge due to DIVERGED_ITS iterations 20
Nonlinear solve did not converge due to DIVERGED_LINE_SEARCH iterations 9
[31m Solve Did NOT Converge![39m
Aborting as solve did not converge

Solve failed, cutting timestep.

Time Step 2, time = 10.8863, dt = 0.886294
 0 Nonlinear |R| = [32m3.227676e+03[39m
      0 Linear |R| = [32m3.227676e+03[39m
      1 Linear |R| = [32m2.165294e+03[39m
      2 Linear |R| = [32m1.891918e+03[39m
      3 Linear |R| = [33m1.846190e+03[39m
      4 Linear |R| = [33m1.845822e+03[39m
      5 Linear |R| = [33m1.845821e+03[39m
      6 Linear |R| = [33m1.843505e+03[39m
      7 Linear |R| = [33m1.794535e+03[39m
      8 Linear |R| = [33m1.794161e+03[39m
      9 Linear |R| = [33m1.792408e+03[39m
     10 Linear |R| = [33m1.771228e+03[39m
     11 Linear |R| = [33m1.760252e+03[39m
     12 Linear |R| = [33m1.759112e+03[39m
     13 Linear |R| = [33m1.706103e+03[39m
     14 Linear |R| = [33m1.705306e+03[39m
     15 Linear |R| = [33m1.689223e+03[39m
     16 Linear |R| = [33m1.673429e+03[39m
     17 Linear |R| = [33m1.673423e+03[39m
     18 Linear |R| = [33m1.672715e+03[39m
     19 Linear |R| = [33m1.672712e+03[39m
     20 Linear |R| = [33m1.669891e+03[39m
  Linear solve did not converge due to DIVERGED_ITS iterations 20
 1 Nonlinear |R| = [32m2.211800e+03[39m
      0 Linear |R| = [32m2.211800e+03[39m
      1 Linear |R| = [33m2.209433e+03[39m
      2 Linear |R| = [33m2.159191e+03[39m
      3 Linear |R| = [33m2.092954e+03[39m
      4 Linear |R| = [33m2.066150e+03[39m
      5 Linear |R| = [33m2.040045e+03[39m
      6 Linear |R| = [33m2.008845e+03[39m
      7 Linear |R| = [33m2.007482e+03[39m
      8 Linear |R| = [33m2.007118e+03[39m
      9 Linear |R| = [33m1.969020e+03[39m
     10 Linear |R| = [32m1.847674e+03[39m
     11 Linear |R| = [33m1.847058e+03[39m
     12 Linear |R| = [33m1.847053e+03[39m
     13 Linear |R| = [33m1.845963e+03[39m
     14 Linear |R| = [33m1.845152e+03[39m
     15 Linear |R| = [33m1.838399e+03[39m
     16 Linear |R| = [33m1.836968e+03[39m
     17 Linear |R| = [33m1.833827e+03[39m
     18 Linear |R| = [33m1.829133e+03[39m
     19 Linear |R| = [33m1.825678e+03[39m
     20 Linear |R| = [33m1.822401e+03[39m
  Linear solve did not converge due to DIVERGED_ITS iterations 20
 2 Nonlinear |R| = [33m2.211743e+03[39m
      0 Linear |R| = [32m2.211743e+03[39m
      1 Linear |R| = [33m2.204658e+03[39m
      2 Linear |R| = [33m2.146391e+03[39m
      3 Linear |R| = [33m2.063809e+03[39m
      4 Linear |R| = [33m2.058878e+03[39m
      5 Linear |R| = [33m2.058746e+03[39m
      6 Linear |R| = [33m2.050956e+03[39m
      7 Linear |R| = [33m2.041410e+03[39m
      8 Linear |R| = [33m2.004878e+03[39m
      9 Linear |R| = [32m1.896311e+03[39m
     10 Linear |R| = [33m1.882322e+03[39m
     11 Linear |R| = [33m1.864322e+03[39m
     12 Linear |R| = [33m1.863750e+03[39m
     13 Linear |R| = [33m1.844437e+03[39m
     14 Linear |R| = [33m1.840628e+03[39m
     15 Linear |R| = [33m1.830444e+03[39m
     16 Linear |R| = [33m1.828732e+03[39m
     17 Linear |R| = [33m1.827460e+03[39m
     18 Linear |R| = [33m1.823008e+03[39m
     19 Linear |R| = [33m1.817642e+03[39m
     20 Linear |R| = [33m1.816836e+03[39m
  Linear solve did not converge due to DIVERGED_ITS iterations 20
 3 Nonlinear |R| = [33m2.211743e+03[39m
      0 Linear |R| = [32m2.211743e+03[39m
      1 Linear |R| = [33m2.204334e+03[39m
      2 Linear |R| = [33m2.204327e+03[39m
      3 Linear |R| = [33m2.204238e+03[39m
      4 Linear |R| = [33m2.198919e+03[39m
      5 Linear |R| = [33m2.127685e+03[39m
      6 Linear |R| = [33m2.124196e+03[39m
      7 Linear |R| = [32m1.951185e+03[39m
      8 Linear |R| = [33m1.939774e+03[39m
      9 Linear |R| = [33m1.925001e+03[39m
     10 Linear |R| = [33m1.918918e+03[39m
     11 Linear |R| = [33m1.918906e+03[39m
     12 Linear |R| = [33m1.868958e+03[39m
     13 Linear |R| = [33m1.868611e+03[39m
     14 Linear |R| = [33m1.867198e+03[39m
     15 Linear |R| = [33m1.848404e+03[39m
     16 Linear |R| = [33m1.842356e+03[39m
     17 Linear |R| = [33m1.834722e+03[39m
     18 Linear |R| = [33m1.802931e+03[39m
     19 Linear |R| = [33m1.801048e+03[39m
     20 Linear |R| = [33m1.800071e+03[39m
  Linear solve did not converge due to DIVERGED_ITS iterations 20
 4 Nonlinear |R| = [33m2.211743e+03[39m
      0 Linear |R| = [32m2.211743e+03[39m
      1 Linear |R| = [33m2.211114e+03[39m
      2 Linear |R| = [33m2.154558e+03[39m
      3 Linear |R| = [33m2.132714e+03[39m
      4 Linear |R| = [33m2.128876e+03[39m
      5 Linear |R| = [33m2.110500e+03[39m
      6 Linear |R| = [33m2.106671e+03[39m
      7 Linear |R| = [33m2.095817e+03[39m
      8 Linear |R| = [33m2.020011e+03[39m
      9 Linear |R| = [33m2.018889e+03[39m
     10 Linear |R| = [33m2.005150e+03[39m
     11 Linear |R| = [33m2.004842e+03[39m
     12 Linear |R| = [32m1.873651e+03[39m
     13 Linear |R| = [33m1.857561e+03[39m
     14 Linear |R| = [33m1.847943e+03[39m
     15 Linear |R| = [33m1.840906e+03[39m
     16 Linear |R| = [33m1.833327e+03[39m
     17 Linear |R| = [33m1.814898e+03[39m
     18 Linear |R| = [33m1.791344e+03[39m
     19 Linear |R| = [33m1.781372e+03[39m
     20 Linear |R| = [33m1.779447e+03[39m
  Linear solve did not converge due to DIVERGED_ITS iterations 20
 5 Nonlinear |R| = [33m2.211743e+03[39m
      0 Linear |R| = [32m2.211743e+03[39m
      1 Linear |R| = [33m2.194102e+03[39m
      2 Linear |R| = [33m2.176353e+03[39m
      3 Linear |R| = [33m2.173040e+03[39m
      4 Linear |R| = [33m2.146901e+03[39m
      5 Linear |R| = [33m2.146868e+03[39m
      6 Linear |R| = [33m2.112131e+03[39m
      7 Linear |R| = [33m2.047285e+03[39m
      8 Linear |R| = [33m1.990431e+03[39m
      9 Linear |R| = [33m1.936601e+03[39m
     10 Linear |R| = [33m1.845911e+03[39m
     11 Linear |R| = [33m1.845772e+03[39m
     12 Linear |R| = [33m1.844582e+03[39m
     13 Linear |R| = [33m1.835488e+03[39m
     14 Linear |R| = [33m1.830689e+03[39m
     15 Linear |R| = [33m1.830538e+03[39m
     16 Linear |R| = [33m1.829953e+03[39m
     17 Linear |R| = [33m1.829671e+03[39m
     18 Linear |R| = [33m1.829378e+03[39m
     19 Linear |R| = [33m1.813420e+03[39m
     20 Linear |R| = [33m1.811812e+03[39m
  Linear solve did not converge due to DIVERGED_ITS iterations 20
Nonlinear solve did not converge due to DIVERGED_LINE_SEARCH iterations 5
[31m Solve Did NOT Converge![39m
Aborting as solve did not converge

Solve failed, cutting timestep.

Time Step 2, time = 10.7977, dt = 0.797664
 0 Nonlinear |R| = [32m3.227676e+03[39m
      0 Linear |R| = [32m3.227676e+03[39m
      1 Linear |R| = [32m2.028207e+03[39m
      2 Linear |R| = [32m1.908950e+03[39m
      3 Linear |R| = [33m1.880833e+03[39m
      4 Linear |R| = [33m1.864787e+03[39m
      5 Linear |R| = [33m1.864457e+03[39m
      6 Linear |R| = [32m1.742296e+03[39m
      7 Linear |R| = [33m1.730100e+03[39m
      8 Linear |R| = [33m1.728109e+03[39m
      9 Linear |R| = [33m1.726644e+03[39m
     10 Linear |R| = [33m1.726584e+03[39m
     11 Linear |R| = [33m1.698484e+03[39m
     12 Linear |R| = [33m1.698311e+03[39m
     13 Linear |R| = [33m1.697916e+03[39m
     14 Linear |R| = [33m1.688736e+03[39m
     15 Linear |R| = [33m1.685426e+03[39m
     16 Linear |R| = [33m1.685359e+03[39m
     17 Linear |R| = [33m1.685353e+03[39m
     18 Linear |R| = [33m1.675317e+03[39m
     19 Linear |R| = [33m1.674680e+03[39m
     20 Linear |R| = [33m1.661257e+03[39m
  Linear solve did not converge due to DIVERGED_ITS iterations 20
 1 Nonlinear |R| = [32m2.084750e+03[39m
      0 Linear |R| = [32m2.084750e+03[39m
      1 Linear |R| = [33m2.078383e+03[39m
      2 Linear |R| = [33m2.038756e+03[39m
      3 Linear |R| = [33m1.999466e+03[39m
      4 Linear |R| = [33m1.998649e+03[39m
      5 Linear |R| = [33m1.990561e+03[39m
      6 Linear |R| = [33m1.972259e+03[39m
      7 Linear |R| = [33m1.957046e+03[39m
      8 Linear |R| = [33m1.956430e+03[39m
      9 Linear |R| = [32m1.838173e+03[39m
     10 Linear |R| = [33m1.821728e+03[39m
     11 Linear |R| = [33m1.814540e+03[39m
     12 Linear |R| = [33m1.793764e+03[39m
     13 Linear |R| = [33m1.774745e+03[39m
     14 Linear |R| = [33m1.774742e+03[39m
     15 Linear |R| = [33m1.746571e+03[39m
     16 Linear |R| = [33m1.730774e+03[39m
     17 Linear |R| = [33m1.725460e+03[39m
     18 Linear |R| = [33m1.724713e+03[39m
     19 Linear |R| = [33m1.724681e+03[39m
     20 Linear |R| = [33m1.723568e+03[39m
  Linear solve did not converge due to DIVERGED_ITS iterations 20
 2 Nonlinear |R| = [33m2.084685e+03[39m
      0 Linear |R| = [32m2.084685e+03[39m
      1 Linear |R| = [33m2.084114e+03[39m
      2 Linear |R| = [33m2.083817e+03[39m
      3 Linear |R| = [33m2.079864e+03[39m
      4 Linear |R| = [33m2.079715e+03[39m
      5 Linear |R| = [33m2.059915e+03[39m
      6 Linear |R| = [32m1.934410e+03[39m
      7 Linear |R| = [33m1.883138e+03[39m
      8 Linear |R| = [33m1.874077e+03[39m
      9 Linear |R| = [33m1.872040e+03[39m
     10 Linear |R| = [33m1.871458e+03[39m
     11 Linear |R| = [33m1.843140e+03[39m
     12 Linear |R| = [33m1.828434e+03[39m
     13 Linear |R| = [33m1.793307e+03[39m
     14 Linear |R| = [33m1.763882e+03[39m
     15 Linear |R| = [33m1.749664e+03[39m
     16 Linear |R| = [33m1.743883e+03[39m
     17 Linear |R| = [33m1.741014e+03[39m
     18 Linear |R| = [33m1.733687e+03[39m
     19 Linear |R| = [33m1.725474e+03[39m
     20 Linear |R| = [33m1.725104e+03[39m
  Linear solve did not converge due to DIVERGED_ITS iterations 20
 3 Nonlinear |R| = [33m2.084569e+03[39m
      0 Linear |R| = [32m2.084569e+03[39m
      1 Linear |R| = [33m2.083083e+03[39m
      2 Linear |R| = [33m2.071114e+03[39m
      3 Linear |R| = [33m2.058564e+03[39m
      4 Linear |R| = [33m2.050768e+03[39m
      5 Linear |R| = [33m2.048159e+03[39m
      6 Linear |R| = [33m2.008567e+03[39m
      7 Linear |R| = [33m2.000642e+03[39m
      8 Linear |R| = [32m1.803937e+03[39m
      9 Linear |R| = [33m1.796592e+03[39m
     10 Linear |R| = [33m1.791335e+03[39m
     11 Linear |R| = [33m1.777503e+03[39m
     12 Linear |R| = [33m1.760825e+03[39m
     13 Linear |R| = [33m1.760809e+03[39m
     14 Linear |R| = [33m1.758518e+03[39m
     15 Linear |R| = [33m1.754925e+03[39m
     16 Linear |R| = [33m1.748818e+03[39m
     17 Linear |R| = [33m1.744085e+03[39m
     18 Linear |R| = [33m1.742993e+03[39m
     19 Linear |R| = [33m1.736194e+03[39m
     20 Linear |R| = [33m1.708167e+03[39m
  Linear solve did not converge due to DIVERGED_ITS iterations 20
 4 Nonlinear |R| = [33m2.084569e+03[39m
      0 Linear |R| = [32m2.084569e+03[39m
      1 Linear |R| = [33m2.083723e+03[39m
      2 Linear |R| = [33m2.061483e+03[39m
      3 Linear |R| = [33m2.050348e+03[39m
      4 Linear |R| = [33m2.050341e+03[39m
      5 Linear |R| = [33m2.041074e+03[39m
      6 Linear |R| = [33m2.037190e+03[39m
      7 Linear |R| = [32m1.887107e+03[39m
      8 Linear |R| = [33m1.869569e+03[39m
      9 Linear |R| = [33m1.864598e+03[39m
     10 Linear |R| = [33m1.832482e+03[39m
     11 Linear |R| = [33m1.831389e+03[39m
     12 Linear |R| = [33m1.791134e+03[39m
     13 Linear |R| = [33m1.789905e+03[39m
     14 Linear |R| = [33m1.784372e+03[39m
     15 Linear |R| = [33m1.782599e+03[39m
     16 Linear |R| = [33m1.773948e+03[39m
     17 Linear |R| = [33m1.762397e+03[39m
     18 Linear |R| = [33m1.754459e+03[39m
     19 Linear |R| = [33m1.739972e+03[39m
     20 Linear |R| = [33m1.716737e+03[39m
  Linear solve did not converge due to DIVERGED_ITS iterations 20
 5 Nonlinear |R| = [33m2.084569e+03[39m
      0 Linear |R| = [32m2.084569e+03[39m
      1 Linear |R| = [33m2.080606e+03[39m
      2 Linear |R| = [33m2.000695e+03[39m
      3 Linear |R| = [32m1.849103e+03[39m
      4 Linear |R| = [33m1.818105e+03[39m
      5 Linear |R| = [33m1.814119e+03[39m
      6 Linear |R| = [33m1.814000e+03[39m
      7 Linear |R| = [33m1.805217e+03[39m
      8 Linear |R| = [33m1.797184e+03[39m
      9 Linear |R| = [33m1.795070e+03[39m
     10 Linear |R| = [33m1.792969e+03[39m
     11 Linear |R| = [33m1.785229e+03[39m
     12 Linear |R| = [33m1.779948e+03[39m
     13 Linear |R| = [33m1.779242e+03[39m
     14 Linear |R| = [33m1.768656e+03[39m
     15 Linear |R| = [33m1.767555e+03[39m
     16 Linear |R| = [33m1.764841e+03[39m
     17 Linear |R| = [33m1.738568e+03[39m
     18 Linear |R| = [33m1.729047e+03[39m
     19 Linear |R| = [33m1.724656e+03[39m
     20 Linear |R| = [33m1.723333e+03[39m
  Linear solve did not converge due to DIVERGED_ITS iterations 20
Nonlinear solve did not converge due to DIVERGED_LINE_SEARCH iterations 5
[31m Solve Did NOT Converge![39m
Aborting as solve did not converge

Solve failed, cutting timestep.

Time Step 2, time = 10.7179, dt = 0.717898
 0 Nonlinear |R| = [32m3.227676e+03[39m
      0 Linear |R| = [32m3.227676e+03[39m
      1 Linear |R| = [32m2.158058e+03[39m
      2 Linear |R| = [32m1.898122e+03[39m
      3 Linear |R| = [33m1.844435e+03[39m
      4 Linear |R| = [33m1.844432e+03[39m
      5 Linear |R| = [33m1.844242e+03[39m
      6 Linear |R| = [33m1.824836e+03[39m
      7 Linear |R| = [33m1.798386e+03[39m
      8 Linear |R| = [33m1.777039e+03[39m
      9 Linear |R| = [33m1.733673e+03[39m
     10 Linear |R| = [33m1.724060e+03[39m
     11 Linear |R| = [33m1.717193e+03[39m
     12 Linear |R| = [33m1.716956e+03[39m
     13 Linear |R| = [33m1.707992e+03[39m
     14 Linear |R| = [33m1.694908e+03[39m
     15 Linear |R| = [33m1.677682e+03[39m
     16 Linear |R| = [33m1.670834e+03[39m
     17 Linear |R| = [33m1.661061e+03[39m
     18 Linear |R| = [33m1.661060e+03[39m
     19 Linear |R| = [33m1.652467e+03[39m
     20 Linear |R| = [33m1.652395e+03[39m
  Linear solve did not converge due to DIVERGED_ITS iterations 20
 1 Nonlinear |R| = [32m1.701631e+03[39m
      0 Linear |R| = [32m1.701631e+03[39m
      1 Linear |R| = [33m1.699552e+03[39m
      2 Linear |R| = [33m1.661182e+03[39m
      3 Linear |R| = [33m1.649463e+03[39m
      4 Linear |R| = [33m1.615646e+03[39m
      5 Linear |R| = [33m1.613116e+03[39m
      6 Linear |R| = [33m1.604011e+03[39m
      7 Linear |R| = [33m1.585630e+03[39m
      8 Linear |R| = [33m1.584525e+03[39m
      9 Linear |R| = [33m1.581151e+03[39m
     10 Linear |R| = [33m1.555124e+03[39m
     11 Linear |R| = [33m1.537413e+03[39m
     12 Linear |R| = [33m1.518773e+03[39m
     13 Linear |R| = [33m1.515120e+03[39m
     14 Linear |R| = [33m1.515119e+03[39m
     15 Linear |R| = [33m1.513705e+03[39m
     16 Linear |R| = [33m1.512122e+03[39m
     17 Linear |R| = [33m1.508184e+03[39m
     18 Linear |R| = [33m1.507880e+03[39m
     19 Linear |R| = [33m1.506610e+03[39m
     20 Linear |R| = [33m1.505261e+03[39m
  Linear solve did not converge due to DIVERGED_ITS iterations 20
 2 Nonlinear |R| = [33m1.701631e+03[39m
      0 Linear |R| = [32m1.701631e+03[39m
      1 Linear |R| = [33m1.700042e+03[39m
      2 Linear |R| = [33m1.699946e+03[39m
      3 Linear |R| = [33m1.664652e+03[39m
      4 Linear |R| = [33m1.650031e+03[39m
      5 Linear |R| = [33m1.649478e+03[39m
      6 Linear |R| = [33m1.616648e+03[39m
      7 Linear |R| = [33m1.612466e+03[39m
      8 Linear |R| = [33m1.601440e+03[39m
      9 Linear |R| = [33m1.581025e+03[39m
     10 Linear |R| = [33m1.572332e+03[39m
     11 Linear |R| = [33m1.565999e+03[39m
     12 Linear |R| = [33m1.554514e+03[39m
     13 Linear |R| = [33m1.552390e+03[39m
     14 Linear |R| = [33m1.549789e+03[39m
     15 Linear |R| = [33m1.545056e+03[39m
     16 Linear |R| = [33m1.545055e+03[39m
     17 Linear |R| = [33m1.539448e+03[39m
     18 Linear |R| = [33m1.517645e+03[39m
     19 Linear |R| = [33m1.517536e+03[39m
     20 Linear |R| = [33m1.516331e+03[39m
  Linear solve did not converge due to DIVERGED_ITS iterations 20
 3 Nonlinear |R| = [33m1.701631e+03[39m
      0 Linear |R| = [32m1.701631e+03[39m
      1 Linear |R| = [33m1.701232e+03[39m
      2 Linear |R| = [33m1.701231e+03[39m
      3 Linear |R| = [33m1.685278e+03[39m
      4 Linear |R| = [33m1.602813e+03[39m
      5 Linear |R| = [33m1.596328e+03[39m
      6 Linear |R| = [33m1.588872e+03[39m
      7 Linear |R| = [33m1.588753e+03[39m
      8 Linear |R| = [33m1.583125e+03[39m
      9 Linear |R| = [33m1.577450e+03[39m
     10 Linear |R| = [33m1.574627e+03[39m
     11 Linear |R| = [33m1.573859e+03[39m
     12 Linear |R| = [33m1.561213e+03[39m
     13 Linear |R| = [33m1.550199e+03[39m
     14 Linear |R| = [33m1.537301e+03[39m
     15 Linear |R| = [33m1.515750e+03[39m
     16 Linear |R| = [33m1.515677e+03[39m
     17 Linear |R| = [33m1.513013e+03[39m
     18 Linear |R| = [33m1.498172e+03[39m
     19 Linear |R| = [33m1.488777e+03[39m
     20 Linear |R| = [33m1.476468e+03[39m
  Linear solve did not converge due to DIVERGED_ITS iterations 20
 4 Nonlinear |R| = [33m1.701631e+03[39m
      0 Linear |R| = [32m1.701631e+03[39m
      1 Linear |R| = [33m1.697894e+03[39m
      2 Linear |R| = [33m1.632894e+03[39m
      3 Linear |R| = [33m1.617531e+03[39m
      4 Linear |R| = [33m1.607634e+03[39m
      5 Linear |R| = [33m1.605927e+03[39m
      6 Linear |R| = [33m1.603388e+03[39m
      7 Linear |R| = [33m1.598544e+03[39m
      8 Linear |R| = [33m1.577378e+03[39m
      9 Linear |R| = [33m1.561674e+03[39m
     10 Linear |R| = [33m1.556211e+03[39m
     11 Linear |R| = [33m1.556149e+03[39m
     12 Linear |R| = [33m1.543769e+03[39m
     13 Linear |R| = [33m1.534507e+03[39m
     14 Linear |R| = [33m1.530184e+03[39m
     15 Linear |R| = [33m1.526200e+03[39m
     16 Linear |R| = [33m1.518486e+03[39m
     17 Linear |R| = [33m1.503265e+03[39m
     18 Linear |R| = [33m1.499852e+03[39m
     19 Linear |R| = [33m1.499336e+03[39m
     20 Linear |R| = [33m1.487857e+03[39m
  Linear solve did not converge due to DIVERGED_ITS iterations 20
Nonlinear solve did not converge due to DIVERGED_LINE_SEARCH iterations 4
[31m Solve Did NOT Converge![39m
Aborting as solve did not converge

Solve failed, cutting timestep.

Time Step 2, time = 10.6461, dt = 0.646108
 0 Nonlinear |R| = [32m3.227676e+03[39m
      0 Linear |R| = [32m3.227676e+03[39m
      1 Linear |R| = [32m2.352595e+03[39m
      2 Linear |R| = [33m2.303695e+03[39m
      3 Linear |R| = [32m2.101544e+03[39m
      4 Linear |R| = [33m2.044313e+03[39m
      5 Linear |R| = [33m2.008261e+03[39m
      6 Linear |R| = [33m1.977049e+03[39m
      7 Linear |R| = [33m1.944211e+03[39m
      8 Linear |R| = [33m1.933818e+03[39m
      9 Linear |R| = [33m1.918738e+03[39m
     10 Linear |R| = [32m1.715774e+03[39m
     11 Linear |R| = [33m1.715742e+03[39m
     12 Linear |R| = [33m1.690089e+03[39m
     13 Linear |R| = [33m1.689675e+03[39m
     14 Linear |R| = [33m1.688497e+03[39m
     15 Linear |R| = [33m1.680086e+03[39m
     16 Linear |R| = [33m1.679726e+03[39m
     17 Linear |R| = [33m1.666270e+03[39m
     18 Linear |R| = [33m1.660634e+03[39m
     19 Linear |R| = [33m1.654172e+03[39m
     20 Linear |R| = [33m1.653900e+03[39m
  Linear solve did not converge due to DIVERGED_ITS iterations 20
 1 Nonlinear |R| = [32m1.323573e+03[39m
      0 Linear |R| = [32m1.323573e+03[39m
      1 Linear |R| = [33m1.322337e+03[39m
      2 Linear |R| = [33m1.320970e+03[39m
      3 Linear |R| = [33m1.319988e+03[39m
      4 Linear |R| = [33m1.319466e+03[39m
      5 Linear |R| = [33m1.308922e+03[39m
      6 Linear |R| = [33m1.307242e+03[39m
      7 Linear |R| = [33m1.307235e+03[39m
      8 Linear |R| = [33m1.305561e+03[39m
      9 Linear |R| = [33m1.305547e+03[39m
     10 Linear |R| = [33m1.305488e+03[39m
     11 Linear |R| = [33m1.305487e+03[39m
     12 Linear |R| = [33m1.305484e+03[39m
     13 Linear |R| = [33m1.305376e+03[39m
     14 Linear |R| = [33m1.305370e+03[39m
     15 Linear |R| = [33m1.304680e+03[39m
     16 Linear |R| = [33m1.304618e+03[39m
     17 Linear |R| = [33m1.303958e+03[39m
     18 Linear |R| = [33m1.294620e+03[39m
     19 Linear |R| = [33m1.290083e+03[39m
     20 Linear |R| = [33m1.289784e+03[39m
  Linear solve did not converge due to DIVERGED_ITS iterations 20
 2 Nonlinear |R| = [33m1.323573e+03[39m
      0 Linear |R| = [32m1.323573e+03[39m
      1 Linear |R| = [33m1.323572e+03[39m
      2 Linear |R| = [33m1.313711e+03[39m
      3 Linear |R| = [33m1.313380e+03[39m
      4 Linear |R| = [33m1.312597e+03[39m
      5 Linear |R| = [33m1.312597e+03[39m
      6 Linear |R| = [33m1.310472e+03[39m
      7 Linear |R| = [33m1.303214e+03[39m
      8 Linear |R| = [33m1.302503e+03[39m
      9 Linear |R| = [33m1.300848e+03[39m
     10 Linear |R| = [33m1.297029e+03[39m
     11 Linear |R| = [33m1.290213e+03[39m
     12 Linear |R| = [33m1.286724e+03[39m
     13 Linear |R| = [33m1.286484e+03[39m
     14 Linear |R| = [33m1.286386e+03[39m
     15 Linear |R| = [33m1.286161e+03[39m
     16 Linear |R| = [33m1.282568e+03[39m
     17 Linear |R| = [33m1.280242e+03[39m
     18 Linear |R| = [33m1.280212e+03[39m
     19 Linear |R| = [33m1.279561e+03[39m
     20 Linear |R| = [33m1.275303e+03[39m
  Linear solve did not converge due to DIVERGED_ITS iterations 20
Nonlinear solve did not converge due to DIVERGED_LINE_SEARCH iterations 2
[31m Solve Did NOT Converge![39m
Aborting as solve did not converge

Solve failed, cutting timestep.

Time Step 2, time = 10.5815, dt = 0.581497
 0 Nonlinear |R| = [32m3.227676e+03[39m
      0 Linear |R| = [32m3.227676e+03[39m
      1 Linear |R| = [32m2.282807e+03[39m
      2 Linear |R| = [33m2.234695e+03[39m
      3 Linear |R| = [33m2.215397e+03[39m
      4 Linear |R| = [33m2.205650e+03[39m
      5 Linear |R| = [33m2.148962e+03[39m
      6 Linear |R| = [33m2.085922e+03[39m
      7 Linear |R| = [33m2.082973e+03[39m
      8 Linear |R| = [32m1.925880e+03[39m
      9 Linear |R| = [33m1.924053e+03[39m
     10 Linear |R| = [33m1.867183e+03[39m
     11 Linear |R| = [33m1.857381e+03[39m
     12 Linear |R| = [33m1.856797e+03[39m
     13 Linear |R| = [32m1.743985e+03[39m
     14 Linear |R| = [33m1.683179e+03[39m
     15 Linear |R| = [33m1.681756e+03[39m
     16 Linear |R| = [33m1.677840e+03[39m
     17 Linear |R| = [33m1.674339e+03[39m
     18 Linear |R| = [33m1.646787e+03[39m
     19 Linear |R| = [33m1.631404e+03[39m
     20 Linear |R| = [33m1.630903e+03[39m
  Linear solve did not converge due to DIVERGED_ITS iterations 20
 1 Nonlinear |R| = [32m2.445493e+03[39m
      0 Linear |R| = [32m2.445493e+03[39m
      1 Linear |R| = [33m2.425146e+03[39m
      2 Linear |R| = [33m2.408749e+03[39m
      3 Linear |R| = [33m2.397627e+03[39m
      4 Linear |R| = [33m2.338836e+03[39m
      5 Linear |R| = [33m2.314806e+03[39m
      6 Linear |R| = [33m2.245823e+03[39m
      7 Linear |R| = [33m2.244881e+03[39m
      8 Linear |R| = [33m2.228192e+03[39m
      9 Linear |R| = [33m2.139306e+03[39m
     10 Linear |R| = [33m2.122141e+03[39m
     11 Linear |R| = [33m2.094407e+03[39m
     12 Linear |R| = [33m2.089916e+03[39m
     13 Linear |R| = [33m2.057831e+03[39m
     14 Linear |R| = [33m2.054633e+03[39m
     15 Linear |R| = [33m2.051509e+03[39m
     16 Linear |R| = [33m2.049776e+03[39m
     17 Linear |R| = [33m2.026524e+03[39m
     18 Linear |R| = [33m2.015167e+03[39m
     19 Linear |R| = [33m2.014810e+03[39m
     20 Linear |R| = [33m2.014108e+03[39m
  Linear solve did not converge due to DIVERGED_ITS iterations 20
 2 Nonlinear |R| = [33m2.445432e+03[39m
      0 Linear |R| = [32m2.445432e+03[39m
      1 Linear |R| = [33m2.435412e+03[39m
      2 Linear |R| = [33m2.355356e+03[39m
      3 Linear |R| = [33m2.247313e+03[39m
      4 Linear |R| = [33m2.242692e+03[39m
      5 Linear |R| = [33m2.237648e+03[39m
      6 Linear |R| = [33m2.209824e+03[39m
      7 Linear |R| = [33m2.209772e+03[39m
      8 Linear |R| = [33m2.177253e+03[39m
      9 Linear |R| = [33m2.131967e+03[39m
     10 Linear |R| = [33m2.131771e+03[39m
     11 Linear |R| = [33m2.129870e+03[39m
     12 Linear |R| = [33m2.101090e+03[39m
     13 Linear |R| = [33m2.095713e+03[39m
     14 Linear |R| = [33m2.095323e+03[39m
     15 Linear |R| = [33m2.060841e+03[39m
     16 Linear |R| = [33m2.033889e+03[39m
     17 Linear |R| = [33m2.027127e+03[39m
     18 Linear |R| = [33m2.019371e+03[39m
     19 Linear |R| = [33m2.010457e+03[39m
     20 Linear |R| = [33m2.009681e+03[39m
  Linear solve did not converge due to DIVERGED_ITS iterations 20
 3 Nonlinear |R| = [33m2.445432e+03[39m
      0 Linear |R| = [32m2.445432e+03[39m
      1 Linear |R| = [33m2.429145e+03[39m
      2 Linear |R| = [33m2.323354e+03[39m
      3 Linear |R| = [33m2.287991e+03[39m
      4 Linear |R| = [33m2.258800e+03[39m
      5 Linear |R| = [33m2.190335e+03[39m
      6 Linear |R| = [33m2.181012e+03[39m
      7 Linear |R| = [33m2.179677e+03[39m
      8 Linear |R| = [33m2.177584e+03[39m
      9 Linear |R| = [33m2.175720e+03[39m
     10 Linear |R| = [33m2.173722e+03[39m
     11 Linear |R| = [33m2.156062e+03[39m
     12 Linear |R| = [33m2.139587e+03[39m
     13 Linear |R| = [33m2.136456e+03[39m
     14 Linear |R| = [33m2.135851e+03[39m
     15 Linear |R| = [33m2.126237e+03[39m
     16 Linear |R| = [33m2.117016e+03[39m
     17 Linear |R| = [33m2.116405e+03[39m
     18 Linear |R| = [33m2.085017e+03[39m
     19 Linear |R| = [33m2.081456e+03[39m
     20 Linear |R| = [33m2.060562e+03[39m
  Linear solve did not converge due to DIVERGED_ITS iterations 20
 4 Nonlinear |R| = [33m2.445432e+03[39m
      0 Linear |R| = [32m2.445432e+03[39m
      1 Linear |R| = [33m2.444343e+03[39m
      2 Linear |R| = [32m2.267167e+03[39m
      3 Linear |R| = [33m2.239800e+03[39m
      4 Linear |R| = [33m2.235064e+03[39m
      5 Linear |R| = [33m2.228368e+03[39m
      6 Linear |R| = [33m2.220862e+03[39m
      7 Linear |R| = [33m2.218889e+03[39m
      8 Linear |R| = [33m2.216307e+03[39m
      9 Linear |R| = [33m2.201000e+03[39m
     10 Linear |R| = [33m2.131751e+03[39m
     11 Linear |R| = [33m2.116003e+03[39m
     12 Linear |R| = [33m2.115100e+03[39m
     13 Linear |R| = [33m2.112702e+03[39m
     14 Linear |R| = [33m2.099151e+03[39m
     15 Linear |R| = [33m2.099013e+03[39m
     16 Linear |R| = [33m2.097869e+03[39m
     17 Linear |R| = [33m2.097034e+03[39m
     18 Linear |R| = [33m2.082947e+03[39m
     19 Linear |R| = [33m2.081193e+03[39m
     20 Linear |R| = [33m2.077168e+03[39m
  Linear solve did not converge due to DIVERGED_ITS iterations 20
Nonlinear solve did not converge due to DIVERGED_LINE_SEARCH iterations 4
[31m Solve Did NOT Converge![39m
Aborting as solve did not converge

Solve failed, cutting timestep.

Time Step 2, time = 10.5233, dt = 0.523348
 0 Nonlinear |R| = [32m3.227676e+03[39m
      0 Linear |R| = [32m3.227676e+03[39m
      1 Linear |R| = [32m2.024339e+03[39m
      2 Linear |R| = [33m1.944174e+03[39m
      3 Linear |R| = [33m1.941829e+03[39m
      4 Linear |R| = [32m1.822911e+03[39m
      5 Linear |R| = [33m1.818078e+03[39m
      6 Linear |R| = [33m1.814425e+03[39m
      7 Linear |R| = [33m1.768740e+03[39m
      8 Linear |R| = [33m1.768715e+03[39m
      9 Linear |R| = [33m1.714655e+03[39m
     10 Linear |R| = [33m1.699927e+03[39m
     11 Linear |R| = [33m1.697452e+03[39m
     12 Linear |R| = [33m1.696731e+03[39m
     13 Linear |R| = [33m1.696185e+03[39m
     14 Linear |R| = [33m1.692242e+03[39m
     15 Linear |R| = [33m1.689768e+03[39m
     16 Linear |R| = [33m1.687813e+03[39m
     17 Linear |R| = [33m1.680815e+03[39m
     18 Linear |R| = [33m1.656124e+03[39m
     19 Linear |R| = [33m1.656011e+03[39m
     20 Linear |R| = [33m1.652488e+03[39m
  Linear solve did not converge due to DIVERGED_ITS iterations 20
 1 Nonlinear |R| = [32m2.473383e+03[39m
      0 Linear |R| = [32m2.473383e+03[39m
      1 Linear |R| = [33m2.443118e+03[39m
      2 Linear |R| = [33m2.442237e+03[39m
      3 Linear |R| = [33m2.439895e+03[39m
      4 Linear |R| = [33m2.439799e+03[39m
      5 Linear |R| = [33m2.439784e+03[39m
      6 Linear |R| = [33m2.429850e+03[39m
      7 Linear |R| = [33m2.423784e+03[39m
      8 Linear |R| = [33m2.378685e+03[39m
      9 Linear |R| = [33m2.355530e+03[39m
     10 Linear |R| = [33m2.341251e+03[39m
     11 Linear |R| = [33m2.316718e+03[39m
     12 Linear |R| = [33m2.303189e+03[39m
     13 Linear |R| = [33m2.273912e+03[39m
     14 Linear |R| = [33m2.273793e+03[39m
     15 Linear |R| = [33m2.223578e+03[39m
     16 Linear |R| = [33m2.220778e+03[39m
     17 Linear |R| = [33m2.166764e+03[39m
     18 Linear |R| = [33m2.165193e+03[39m
     19 Linear |R| = [33m2.145971e+03[39m
     20 Linear |R| = [33m2.144386e+03[39m
  Linear solve did not converge due to DIVERGED_ITS iterations 20
 2 Nonlinear |R| = [33m2.473366e+03[39m
      0 Linear |R| = [32m2.473366e+03[39m
      1 Linear |R| = [33m2.472414e+03[39m
      2 Linear |R| = [33m2.467780e+03[39m
      3 Linear |R| = [33m2.461418e+03[39m
      4 Linear |R| = [33m2.456821e+03[39m
      5 Linear |R| = [33m2.447968e+03[39m
      6 Linear |R| = [33m2.407442e+03[39m
      7 Linear |R| = [33m2.405570e+03[39m
      8 Linear |R| = [33m2.405025e+03[39m
      9 Linear |R| = [33m2.372362e+03[39m
     10 Linear |R| = [33m2.372060e+03[39m
     11 Linear |R| = [33m2.371935e+03[39m
     12 Linear |R| = [33m2.307966e+03[39m
     13 Linear |R| = [33m2.251845e+03[39m
     14 Linear |R| = [33m2.249286e+03[39m
     15 Linear |R| = [33m2.230729e+03[39m
     16 Linear |R| = [33m2.215189e+03[39m
     17 Linear |R| = [33m2.178361e+03[39m
     18 Linear |R| = [33m2.118844e+03[39m
     19 Linear |R| = [33m2.116533e+03[39m
     20 Linear |R| = [33m2.106899e+03[39m
  Linear solve did not converge due to DIVERGED_ITS iterations 20
 3 Nonlinear |R| = [33m2.473366e+03[39m
      0 Linear |R| = [32m2.473366e+03[39m
      1 Linear |R| = [33m2.467746e+03[39m
      2 Linear |R| = [33m2.465467e+03[39m
      3 Linear |R| = [33m2.374925e+03[39m
      4 Linear |R| = [33m2.358927e+03[39m
      5 Linear |R| = [33m2.358678e+03[39m
      6 Linear |R| = [33m2.357414e+03[39m
      7 Linear |R| = [33m2.252905e+03[39m
      8 Linear |R| = [33m2.246899e+03[39m
      9 Linear |R| = [33m2.235268e+03[39m
     10 Linear |R| = [33m2.225647e+03[39m
     11 Linear |R| = [33m2.224238e+03[39m
     12 Linear |R| = [33m2.222685e+03[39m
     13 Linear |R| = [33m2.212871e+03[39m
     14 Linear |R| = [33m2.168710e+03[39m
     15 Linear |R| = [33m2.166596e+03[39m
     16 Linear |R| = [33m2.163848e+03[39m
     17 Linear |R| = [33m2.153331e+03[39m
     18 Linear |R| = [33m2.152925e+03[39m
     19 Linear |R| = [33m2.131610e+03[39m
     20 Linear |R| = [33m2.127898e+03[39m
  Linear solve did not converge due to DIVERGED_ITS iterations 20
Nonlinear solve did not converge due to DIVERGED_LINE_SEARCH iterations 3
[31m Solve Did NOT Converge![39m
Aborting as solve did not converge

Solve failed, cutting timestep.

Time Step 2, time = 10.471, dt = 0.471013
 0 Nonlinear |R| = [32m3.227676e+03[39m
      0 Linear |R| = [32m3.227676e+03[39m
      1 Linear |R| = [32m2.088984e+03[39m
      2 Linear |R| = [33m2.004201e+03[39m
      3 Linear |R| = [33m1.981307e+03[39m
      4 Linear |R| = [33m1.891135e+03[39m
      5 Linear |R| = [32m1.769698e+03[39m
      6 Linear |R| = [33m1.768626e+03[39m
      7 Linear |R| = [33m1.760807e+03[39m
      8 Linear |R| = [33m1.757651e+03[39m
      9 Linear |R| = [33m1.754506e+03[39m
     10 Linear |R| = [33m1.754200e+03[39m
     11 Linear |R| = [33m1.753708e+03[39m
     12 Linear |R| = [33m1.753673e+03[39m
     13 Linear |R| = [33m1.719451e+03[39m
     14 Linear |R| = [33m1.708932e+03[39m
     15 Linear |R| = [33m1.689701e+03[39m
     16 Linear |R| = [33m1.687548e+03[39m
     17 Linear |R| = [33m1.687543e+03[39m
     18 Linear |R| = [33m1.685103e+03[39m
     19 Linear |R| = [33m1.683859e+03[39m
     20 Linear |R| = [33m1.670174e+03[39m
  Linear solve did not converge due to DIVERGED_ITS iterations 20
 1 Nonlinear |R| = [32m2.020124e+03[39m
      0 Linear |R| = [32m2.020124e+03[39m
      1 Linear |R| = [33m2.020120e+03[39m
      2 Linear |R| = [32m1.914217e+03[39m
      3 Linear |R| = [33m1.878943e+03[39m
      4 Linear |R| = [33m1.875121e+03[39m
      5 Linear |R| = [33m1.809437e+03[39m
      6 Linear |R| = [33m1.796702e+03[39m
      7 Linear |R| = [33m1.796697e+03[39m
      8 Linear |R| = [33m1.787631e+03[39m
      9 Linear |R| = [33m1.785363e+03[39m
     10 Linear |R| = [33m1.778990e+03[39m
     11 Linear |R| = [33m1.728186e+03[39m
     12 Linear |R| = [33m1.706849e+03[39m
     13 Linear |R| = [33m1.705710e+03[39m
     14 Linear |R| = [33m1.704163e+03[39m
     15 Linear |R| = [33m1.691270e+03[39m
     16 Linear |R| = [33m1.689690e+03[39m
     17 Linear |R| = [33m1.687476e+03[39m
     18 Linear |R| = [33m1.684049e+03[39m
     19 Linear |R| = [33m1.682227e+03[39m
     20 Linear |R| = [33m1.682071e+03[39m
  Linear solve did not converge due to DIVERGED_ITS iterations 20
 2 Nonlinear |R| = [33m2.020123e+03[39m
      0 Linear |R| = [32m2.020123e+03[39m
      1 Linear |R| = [33m2.020123e+03[39m
      2 Linear |R| = [33m1.976193e+03[39m
      3 Linear |R| = [33m1.939098e+03[39m
      4 Linear |R| = [33m1.936916e+03[39m
      5 Linear |R| = [33m1.912258e+03[39m
      6 Linear |R| = [33m1.901515e+03[39m
      7 Linear |R| = [33m1.831427e+03[39m
      8 Linear |R| = [33m1.798897e+03[39m
      9 Linear |R| = [33m1.790871e+03[39m
     10 Linear |R| = [33m1.779117e+03[39m
     11 Linear |R| = [33m1.778869e+03[39m
     12 Linear |R| = [33m1.774684e+03[39m
     13 Linear |R| = [33m1.709408e+03[39m
     14 Linear |R| = [33m1.707292e+03[39m
     15 Linear |R| = [33m1.686320e+03[39m
     16 Linear |R| = [33m1.668475e+03[39m
     17 Linear |R| = [33m1.665527e+03[39m
     18 Linear |R| = [33m1.662647e+03[39m
     19 Linear |R| = [33m1.648022e+03[39m
     20 Linear |R| = [33m1.639322e+03[39m
  Linear solve did not converge due to DIVERGED_ITS iterations 20
 3 Nonlinear |R| = [33m2.020123e+03[39m
      0 Linear |R| = [32m2.020123e+03[39m
      1 Linear |R| = [33m2.018811e+03[39m
      2 Linear |R| = [32m1.892260e+03[39m
      3 Linear |R| = [33m1.892158e+03[39m
      4 Linear |R| = [33m1.891904e+03[39m
      5 Linear |R| = [33m1.878755e+03[39m
      6 Linear |R| = [32m1.765104e+03[39m
      7 Linear |R| = [33m1.723405e+03[39m
      8 Linear |R| = [33m1.723234e+03[39m
      9 Linear |R| = [33m1.715708e+03[39m
     10 Linear |R| = [33m1.715686e+03[39m
     11 Linear |R| = [33m1.715502e+03[39m
     12 Linear |R| = [33m1.714851e+03[39m
     13 Linear |R| = [33m1.709957e+03[39m
     14 Linear |R| = [33m1.707704e+03[39m
     15 Linear |R| = [33m1.701613e+03[39m
     16 Linear |R| = [33m1.693828e+03[39m
     17 Linear |R| = [33m1.689819e+03[39m
     18 Linear |R| = [33m1.688840e+03[39m
     19 Linear |R| = [33m1.688715e+03[39m
     20 Linear |R| = [33m1.688209e+03[39m
  Linear solve did not converge due to DIVERGED_ITS iterations 20
 4 Nonlinear |R| = [33m2.020123e+03[39m
      0 Linear |R| = [32m2.020123e+03[39m
      1 Linear |R| = [33m2.020123e+03[39m
      2 Linear |R| = [33m1.933874e+03[39m
      3 Linear |R| = [33m1.893288e+03[39m
      4 Linear |R| = [33m1.876030e+03[39m
      5 Linear |R| = [33m1.874937e+03[39m
      6 Linear |R| = [33m1.867862e+03[39m
      7 Linear |R| = [33m1.832048e+03[39m
      8 Linear |R| = [33m1.828118e+03[39m
      9 Linear |R| = [33m1.750596e+03[39m
     10 Linear |R| = [33m1.739780e+03[39m
     11 Linear |R| = [33m1.721085e+03[39m
     12 Linear |R| = [33m1.719169e+03[39m
     13 Linear |R| = [33m1.719042e+03[39m
     14 Linear |R| = [33m1.719029e+03[39m
     15 Linear |R| = [33m1.690616e+03[39m
     16 Linear |R| = [33m1.686668e+03[39m
     17 Linear |R| = [33m1.681134e+03[39m
     18 Linear |R| = [33m1.677431e+03[39m
     19 Linear |R| = [33m1.670720e+03[39m
     20 Linear |R| = [33m1.670154e+03[39m
  Linear solve did not converge due to DIVERGED_ITS iterations 20
Nonlinear solve did not converge due to DIVERGED_LINE_SEARCH iterations 4
[31m Solve Did NOT Converge![39m
Aborting as solve did not converge

Solve failed, cutting timestep.

Time Step 2, time = 10.4239, dt = 0.423912
 0 Nonlinear |R| = [32m3.227676e+03[39m
      0 Linear |R| = [32m3.227676e+03[39m
      1 Linear |R| = [32m1.963242e+03[39m
      2 Linear |R| = [32m1.834226e+03[39m
      3 Linear |R| = [33m1.801848e+03[39m
      4 Linear |R| = [33m1.793576e+03[39m
      5 Linear |R| = [33m1.793432e+03[39m
      6 Linear |R| = [33m1.789720e+03[39m
      7 Linear |R| = [33m1.709437e+03[39m
      8 Linear |R| = [33m1.709436e+03[39m
      9 Linear |R| = [33m1.708467e+03[39m
     10 Linear |R| = [33m1.708306e+03[39m
     11 Linear |R| = [33m1.708193e+03[39m
     12 Linear |R| = [33m1.706860e+03[39m
     13 Linear |R| = [33m1.704804e+03[39m
     14 Linear |R| = [33m1.701798e+03[39m
     15 Linear |R| = [33m1.700483e+03[39m
     16 Linear |R| = [33m1.676044e+03[39m
     17 Linear |R| = [33m1.672663e+03[39m
     18 Linear |R| = [33m1.663198e+03[39m
     19 Linear |R| = [33m1.655731e+03[39m
     20 Linear |R| = [33m1.645304e+03[39m
  Linear solve did not converge due to DIVERGED_ITS iterations 20
 1 Nonlinear |R| = [32m2.402998e+03[39m
      0 Linear |R| = [32m2.402998e+03[39m
      1 Linear |R| = [33m2.394284e+03[39m
      2 Linear |R| = [33m2.365382e+03[39m
      3 Linear |R| = [33m2.323252e+03[39m
      4 Linear |R| = [33m2.313527e+03[39m
      5 Linear |R| = [32m2.188840e+03[39m
      6 Linear |R| = [33m2.143625e+03[39m
      7 Linear |R| = [33m2.067375e+03[39m
      8 Linear |R| = [33m2.055274e+03[39m
      9 Linear |R| = [33m2.047397e+03[39m
     10 Linear |R| = [33m2.044972e+03[39m
     11 Linear |R| = [33m2.044001e+03[39m
     12 Linear |R| = [33m2.007038e+03[39m
     13 Linear |R| = [33m2.003890e+03[39m
     14 Linear |R| = [33m2.001935e+03[39m
     15 Linear |R| = [33m2.001562e+03[39m
     16 Linear |R| = [33m1.997929e+03[39m
     17 Linear |R| = [33m1.996678e+03[39m
     18 Linear |R| = [33m1.985874e+03[39m
     19 Linear |R| = [33m1.985325e+03[39m
     20 Linear |R| = [33m1.958732e+03[39m
  Linear solve did not converge due to DIVERGED_ITS iterations 20
 2 Nonlinear |R| = [33m2.402998e+03[39m
      0 Linear |R| = [32m2.402998e+03[39m
      1 Linear |R| = [33m2.402419e+03[39m
      2 Linear |R| = [32m2.202007e+03[39m
      3 Linear |R| = [33m2.103534e+03[39m
      4 Linear |R| = [33m2.084762e+03[39m
      5 Linear |R| = [33m2.076607e+03[39m
      6 Linear |R| = [33m2.070941e+03[39m
      7 Linear |R| = [33m2.047401e+03[39m
      8 Linear |R| = [33m2.046973e+03[39m
      9 Linear |R| = [33m2.021181e+03[39m
     10 Linear |R| = [33m2.021030e+03[39m
     11 Linear |R| = [33m2.013918e+03[39m
     12 Linear |R| = [33m2.011226e+03[39m
     13 Linear |R| = [33m2.010032e+03[39m
     14 Linear |R| = [33m2.001595e+03[39m
     15 Linear |R| = [33m2.001513e+03[39m
     16 Linear |R| = [33m1.998179e+03[39m
     17 Linear |R| = [33m1.995148e+03[39m
     18 Linear |R| = [33m1.995136e+03[39m
     19 Linear |R| = [33m1.993872e+03[39m
     20 Linear |R| = [33m1.980425e+03[39m
  Linear solve did not converge due to DIVERGED_ITS iterations 20
 3 Nonlinear |R| = [33m2.402998e+03[39m
      0 Linear |R| = [32m2.402998e+03[39m
      1 Linear |R| = [33m2.401259e+03[39m
      2 Linear |R| = [33m2.400611e+03[39m
      3 Linear |R| = [33m2.348044e+03[39m
      4 Linear |R| = [33m2.330195e+03[39m
      5 Linear |R| = [32m2.198329e+03[39m
      6 Linear |R| = [33m2.171279e+03[39m
      7 Linear |R| = [33m2.144960e+03[39m
      8 Linear |R| = [33m2.131326e+03[39m
      9 Linear |R| = [33m2.081844e+03[39m
     10 Linear |R| = [33m2.072772e+03[39m
     11 Linear |R| = [33m2.072019e+03[39m
     12 Linear |R| = [33m2.041723e+03[39m
     13 Linear |R| = [33m2.017341e+03[39m
     14 Linear |R| = [33m2.006663e+03[39m
     15 Linear |R| = [33m2.005381e+03[39m
     16 Linear |R| = [33m2.005118e+03[39m
     17 Linear |R| = [33m1.995886e+03[39m
     18 Linear |R| = [33m1.995427e+03[39m
     19 Linear |R| = [33m1.993997e+03[39m
     20 Linear |R| = [33m1.988842e+03[39m
  Linear solve did not converge due to DIVERGED_ITS iterations 20
 4 Nonlinear |R| = [33m2.402998e+03[39m
      0 Linear |R| = [32m2.402998e+03[39m
      1 Linear |R| = [33m2.393860e+03[39m
      2 Linear |R| = [33m2.306854e+03[39m
      3 Linear |R| = [33m2.244337e+03[39m
      4 Linear |R| = [33m2.240277e+03[39m
      5 Linear |R| = [33m2.232553e+03[39m
      6 Linear |R| = [33m2.192740e+03[39m
      7 Linear |R| = [33m2.138342e+03[39m
      8 Linear |R| = [33m2.083580e+03[39m
      9 Linear |R| = [33m2.071687e+03[39m
     10 Linear |R| = [33m2.063739e+03[39m
     11 Linear |R| = [33m2.057657e+03[39m
     12 Linear |R| = [33m2.017931e+03[39m
     13 Linear |R| = [33m2.015394e+03[39m
     14 Linear |R| = [33m2.015337e+03[39m
     15 Linear |R| = [33m2.011527e+03[39m
     16 Linear |R| = [33m2.011408e+03[39m
     17 Linear |R| = [33m2.010471e+03[39m
     18 Linear |R| = [33m2.005975e+03[39m
     19 Linear |R| = [33m1.989114e+03[39m
     20 Linear |R| = [33m1.978426e+03[39m
  Linear solve did not converge due to DIVERGED_ITS iterations 20
Nonlinear solve did not converge due to DIVERGED_LINE_SEARCH iterations 4
[31m Solve Did NOT Converge![39m
Aborting as solve did not converge

Solve failed, cutting timestep.

Time Step 2, time = 10.3815, dt = 0.38152
 0 Nonlinear |R| = [32m3.227676e+03[39m
      0 Linear |R| = [32m3.227676e+03[39m
      1 Linear |R| = [32m2.370835e+03[39m
      2 Linear |R| = [33m2.369103e+03[39m
      3 Linear |R| = [32m2.135223e+03[39m
      4 Linear |R| = [33m2.132406e+03[39m
      5 Linear |R| = [32m1.984671e+03[39m
      6 Linear |R| = [33m1.930533e+03[39m
      7 Linear |R| = [33m1.906082e+03[39m
      8 Linear |R| = [33m1.872885e+03[39m
      9 Linear |R| = [32m1.745519e+03[39m
     10 Linear |R| = [33m1.740434e+03[39m
     11 Linear |R| = [33m1.736497e+03[39m
     12 Linear |R| = [33m1.730491e+03[39m
     13 Linear |R| = [33m1.727225e+03[39m
     14 Linear |R| = [33m1.725044e+03[39m
     15 Linear |R| = [33m1.724649e+03[39m
     16 Linear |R| = [33m1.724450e+03[39m
     17 Linear |R| = [33m1.715814e+03[39m
     18 Linear |R| = [33m1.687921e+03[39m
     19 Linear |R| = [33m1.675536e+03[39m
     20 Linear |R| = [33m1.675033e+03[39m
  Linear solve did not converge due to DIVERGED_ITS iterations 20
 1 Nonlinear |R| = [32m2.683625e+03[39m
      0 Linear |R| = [32m2.683625e+03[39m
      1 Linear |R| = [33m2.683583e+03[39m
      2 Linear |R| = [33m2.641102e+03[39m
      3 Linear |R| = [33m2.569430e+03[39m
      4 Linear |R| = [33m2.553357e+03[39m
      5 Linear |R| = [32m2.394490e+03[39m
      6 Linear |R| = [33m2.393165e+03[39m
      7 Linear |R| = [33m2.288824e+03[39m
      8 Linear |R| = [33m2.265335e+03[39m
      9 Linear |R| = [33m2.264176e+03[39m
     10 Linear |R| = [33m2.264174e+03[39m
     11 Linear |R| = [33m2.263553e+03[39m
     12 Linear |R| = [33m2.262764e+03[39m
     13 Linear |R| = [33m2.228490e+03[39m
     14 Linear |R| = [33m2.222532e+03[39m
     15 Linear |R| = [33m2.222104e+03[39m
     16 Linear |R| = [33m2.221251e+03[39m
     17 Linear |R| = [33m2.220009e+03[39m
     18 Linear |R| = [33m2.217730e+03[39m
     19 Linear |R| = [33m2.217618e+03[39m
     20 Linear |R| = [33m2.217565e+03[39m
  Linear solve did not converge due to DIVERGED_ITS iterations 20
 2 Nonlinear |R| = [33m2.683625e+03[39m
      0 Linear |R| = [32m2.683625e+03[39m
      1 Linear |R| = [33m2.677729e+03[39m
      2 Linear |R| = [33m2.642199e+03[39m
      3 Linear |R| = [33m2.641863e+03[39m
      4 Linear |R| = [33m2.602826e+03[39m
      5 Linear |R| = [33m2.571230e+03[39m
      6 Linear |R| = [33m2.571210e+03[39m
      7 Linear |R| = [32m2.389975e+03[39m
      8 Linear |R| = [33m2.294055e+03[39m
      9 Linear |R| = [33m2.255357e+03[39m
     10 Linear |R| = [33m2.254630e+03[39m
     11 Linear |R| = [33m2.235714e+03[39m
     12 Linear |R| = [33m2.226121e+03[39m
     13 Linear |R| = [33m2.226085e+03[39m
     14 Linear |R| = [33m2.226083e+03[39m
     15 Linear |R| = [33m2.224808e+03[39m
     16 Linear |R| = [33m2.224624e+03[39m
     17 Linear |R| = [33m2.217665e+03[39m
     18 Linear |R| = [33m2.210791e+03[39m
     19 Linear |R| = [33m2.198241e+03[39m
     20 Linear |R| = [33m2.194829e+03[39m
  Linear solve did not converge due to DIVERGED_ITS iterations 20
 3 Nonlinear |R| = [33m2.683625e+03[39m
      0 Linear |R| = [32m2.683625e+03[39m
      1 Linear |R| = [33m2.671476e+03[39m
      2 Linear |R| = [33m2.654745e+03[39m
      3 Linear |R| = [33m2.625949e+03[39m
      4 Linear |R| = [33m2.615469e+03[39m
      5 Linear |R| = [33m2.493386e+03[39m
      6 Linear |R| = [33m2.479636e+03[39m
      7 Linear |R| = [33m2.479631e+03[39m
      8 Linear |R| = [33m2.478083e+03[39m
      9 Linear |R| = [33m2.424061e+03[39m
     10 Linear |R| = [32m2.275428e+03[39m
     11 Linear |R| = [33m2.261239e+03[39m
     12 Linear |R| = [33m2.260254e+03[39m
     13 Linear |R| = [33m2.257590e+03[39m
     14 Linear |R| = [33m2.257496e+03[39m
     15 Linear |R| = [33m2.255073e+03[39m
     16 Linear |R| = [33m2.247591e+03[39m
     17 Linear |R| = [33m2.246731e+03[39m
     18 Linear |R| = [33m2.244115e+03[39m
     19 Linear |R| = [33m2.239447e+03[39m
     20 Linear |R| = [33m2.234558e+03[39m
  Linear solve did not converge due to DIVERGED_ITS iterations 20
 4 Nonlinear |R| = [33m2.683625e+03[39m
      0 Linear |R| = [32m2.683625e+03[39m
      1 Linear |R| = [33m2.639265e+03[39m
      2 Linear |R| = [33m2.638107e+03[39m
      3 Linear |R| = [33m2.536810e+03[39m
      4 Linear |R| = [33m2.530338e+03[39m
      5 Linear |R| = [33m2.501629e+03[39m
      6 Linear |R| = [33m2.464615e+03[39m
      7 Linear |R| = [33m2.450645e+03[39m
      8 Linear |R| = [33m2.448843e+03[39m
      9 Linear |R| = [33m2.435339e+03[39m
     10 Linear |R| = [33m2.372257e+03[39m
     11 Linear |R| = [33m2.357347e+03[39m
     12 Linear |R| = [33m2.315616e+03[39m
     13 Linear |R| = [33m2.315547e+03[39m
     14 Linear |R| = [33m2.310522e+03[39m
     15 Linear |R| = [33m2.310490e+03[39m
     16 Linear |R| = [33m2.274204e+03[39m
     17 Linear |R| = [33m2.269565e+03[39m
     18 Linear |R| = [33m2.267243e+03[39m
     19 Linear |R| = [33m2.258055e+03[39m
     20 Linear |R| = [33m2.255227e+03[39m
  Linear solve did not converge due to DIVERGED_ITS iterations 20
 5 Nonlinear |R| = [33m2.683625e+03[39m
      0 Linear |R| = [32m2.683625e+03[39m
      1 Linear |R| = [33m2.679723e+03[39m
      2 Linear |R| = [33m2.586867e+03[39m
      3 Linear |R| = [33m2.552375e+03[39m
      4 Linear |R| = [33m2.443379e+03[39m
      5 Linear |R| = [33m2.440131e+03[39m
      6 Linear |R| = [32m2.314054e+03[39m
      7 Linear |R| = [33m2.313002e+03[39m
      8 Linear |R| = [33m2.287494e+03[39m
      9 Linear |R| = [33m2.287302e+03[39m
     10 Linear |R| = [33m2.271355e+03[39m
     11 Linear |R| = [33m2.265770e+03[39m
     12 Linear |R| = [33m2.229108e+03[39m
     13 Linear |R| = [33m2.223957e+03[39m
     14 Linear |R| = [33m2.222344e+03[39m
     15 Linear |R| = [33m2.222315e+03[39m
     16 Linear |R| = [33m2.220924e+03[39m
     17 Linear |R| = [33m2.217272e+03[39m
     18 Linear |R| = [33m2.206337e+03[39m
     19 Linear |R| = [33m2.205849e+03[39m
     20 Linear |R| = [33m2.204520e+03[39m
  Linear solve did not converge due to DIVERGED_ITS iterations 20
Nonlinear solve did not converge due to DIVERGED_LINE_SEARCH iterations 5
[31m Solve Did NOT Converge![39m
Aborting as solve did not converge

Solve failed, cutting timestep.

Time Step 2, time = 10.3434, dt = 0.343368
 0 Nonlinear |R| = [32m3.227676e+03[39m
      0 Linear |R| = [32m3.227676e+03[39m
      1 Linear |R| = [32m2.335721e+03[39m
      2 Linear |R| = [33m2.299322e+03[39m
      3 Linear |R| = [33m2.292276e+03[39m
      4 Linear |R| = [32m2.015939e+03[39m
      5 Linear |R| = [33m2.015908e+03[39m
      6 Linear |R| = [32m1.885429e+03[39m
      7 Linear |R| = [32m1.790740e+03[39m
      8 Linear |R| = [33m1.783537e+03[39m
      9 Linear |R| = [33m1.750386e+03[39m
     10 Linear |R| = [33m1.748960e+03[39m
     11 Linear |R| = [33m1.729310e+03[39m
     12 Linear |R| = [33m1.687401e+03[39m
     13 Linear |R| = [33m1.684996e+03[39m
     14 Linear |R| = [33m1.684637e+03[39m
     15 Linear |R| = [33m1.684519e+03[39m
     16 Linear |R| = [33m1.675137e+03[39m
     17 Linear |R| = [33m1.675104e+03[39m
     18 Linear |R| = [33m1.674621e+03[39m
     19 Linear |R| = [33m1.669425e+03[39m
     20 Linear |R| = [33m1.659667e+03[39m
  Linear solve did not converge due to DIVERGED_ITS iterations 20
 1 Nonlinear |R| = [32m2.043654e+03[39m
      0 Linear |R| = [32m2.043654e+03[39m
      1 Linear |R| = [33m2.043624e+03[39m
      2 Linear |R| = [33m2.018291e+03[39m
      3 Linear |R| = [33m2.002950e+03[39m
      4 Linear |R| = [33m1.997219e+03[39m
      5 Linear |R| = [33m1.990845e+03[39m
      6 Linear |R| = [33m1.927702e+03[39m
      7 Linear |R| = [33m1.919852e+03[39m
      8 Linear |R| = [33m1.914138e+03[39m
      9 Linear |R| = [33m1.852566e+03[39m
     10 Linear |R| = [33m1.852465e+03[39m
     11 Linear |R| = [33m1.850263e+03[39m
     12 Linear |R| = [33m1.831555e+03[39m
     13 Linear |R| = [33m1.830312e+03[39m
     14 Linear |R| = [33m1.828525e+03[39m
     15 Linear |R| = [33m1.827770e+03[39m
     16 Linear |R| = [33m1.795729e+03[39m
     17 Linear |R| = [33m1.775493e+03[39m
     18 Linear |R| = [33m1.771039e+03[39m
     19 Linear |R| = [33m1.769697e+03[39m
     20 Linear |R| = [33m1.752860e+03[39m
  Linear solve did not converge due to DIVERGED_ITS iterations 20
 2 Nonlinear |R| = [33m2.043626e+03[39m
      0 Linear |R| = [32m2.043626e+03[39m
      1 Linear |R| = [33m2.043287e+03[39m
      2 Linear |R| = [33m2.039176e+03[39m
      3 Linear |R| = [33m2.038972e+03[39m
      4 Linear |R| = [33m2.028775e+03[39m
      5 Linear |R| = [33m2.026487e+03[39m
      6 Linear |R| = [33m2.024823e+03[39m
      7 Linear |R| = [33m1.996637e+03[39m
      8 Linear |R| = [33m1.926868e+03[39m
      9 Linear |R| = [33m1.886052e+03[39m
     10 Linear |R| = [33m1.885274e+03[39m
     11 Linear |R| = [33m1.884746e+03[39m
     12 Linear |R| = [33m1.877386e+03[39m
     13 Linear |R| = [33m1.869201e+03[39m
     14 Linear |R| = [33m1.847153e+03[39m
     15 Linear |R| = [33m1.845435e+03[39m
     16 Linear |R| = [33m1.839139e+03[39m
     17 Linear |R| = [33m1.838004e+03[39m
     18 Linear |R| = [33m1.836613e+03[39m
     19 Linear |R| = [33m1.833783e+03[39m
     20 Linear |R| = [33m1.790812e+03[39m
  Linear solve did not converge due to DIVERGED_ITS iterations 20
 3 Nonlinear |R| = [33m2.043574e+03[39m
      0 Linear |R| = [32m2.043574e+03[39m
      1 Linear |R| = [33m2.042987e+03[39m
      2 Linear |R| = [33m2.042869e+03[39m
      3 Linear |R| = [32m1.917963e+03[39m
      4 Linear |R| = [33m1.917718e+03[39m
      5 Linear |R| = [33m1.905358e+03[39m
      6 Linear |R| = [33m1.901227e+03[39m
      7 Linear |R| = [33m1.813207e+03[39m
      8 Linear |R| = [33m1.812605e+03[39m
      9 Linear |R| = [33m1.801355e+03[39m
     10 Linear |R| = [33m1.796106e+03[39m
     11 Linear |R| = [33m1.777268e+03[39m
     12 Linear |R| = [33m1.763056e+03[39m
     13 Linear |R| = [33m1.756914e+03[39m
     14 Linear |R| = [33m1.744480e+03[39m
     15 Linear |R| = [33m1.723753e+03[39m
     16 Linear |R| = [33m1.716461e+03[39m
     17 Linear |R| = [33m1.716218e+03[39m
     18 Linear |R| = [33m1.712615e+03[39m
     19 Linear |R| = [33m1.712582e+03[39m
     20 Linear |R| = [33m1.712531e+03[39m
  Linear solve did not converge due to DIVERGED_ITS iterations 20
Nonlinear solve did not converge due to DIVERGED_LINE_SEARCH iterations 3
[31m Solve Did NOT Converge![39m
Aborting as solve did not converge

Solve failed, cutting timestep.

Time Step 2, time = 10.309, dt = 0.309032
 0 Nonlinear |R| = [32m3.227676e+03[39m
      0 Linear |R| = [32m3.227676e+03[39m
      1 Linear |R| = [32m2.028921e+03[39m
      2 Linear |R| = [33m1.944086e+03[39m
      3 Linear |R| = [32m1.806648e+03[39m
      4 Linear |R| = [33m1.771517e+03[39m
      5 Linear |R| = [33m1.732080e+03[39m
      6 Linear |R| = [33m1.731582e+03[39m
      7 Linear |R| = [33m1.723131e+03[39m
      8 Linear |R| = [33m1.715577e+03[39m
      9 Linear |R| = [33m1.702289e+03[39m
     10 Linear |R| = [33m1.697593e+03[39m
     11 Linear |R| = [33m1.692304e+03[39m
     12 Linear |R| = [33m1.691804e+03[39m
     13 Linear |R| = [33m1.691602e+03[39m
     14 Linear |R| = [33m1.691581e+03[39m
     15 Linear |R| = [33m1.688815e+03[39m
     16 Linear |R| = [33m1.688524e+03[39m
     17 Linear |R| = [33m1.674740e+03[39m
     18 Linear |R| = [33m1.664185e+03[39m
     19 Linear |R| = [33m1.661289e+03[39m
     20 Linear |R| = [33m1.661288e+03[39m
  Linear solve did not converge due to DIVERGED_ITS iterations 20
 1 Nonlinear |R| = [32m1.718295e+03[39m
      0 Linear |R| = [32m1.718295e+03[39m
      1 Linear |R| = [33m1.717209e+03[39m
      2 Linear |R| = [33m1.715934e+03[39m
      3 Linear |R| = [33m1.712361e+03[39m
      4 Linear |R| = [33m1.708833e+03[39m
      5 Linear |R| = [33m1.695132e+03[39m
      6 Linear |R| = [33m1.691096e+03[39m
      7 Linear |R| = [33m1.682235e+03[39m
      8 Linear |R| = [33m1.676999e+03[39m
      9 Linear |R| = [33m1.675624e+03[39m
     10 Linear |R| = [33m1.642148e+03[39m
     11 Linear |R| = [33m1.634099e+03[39m
     12 Linear |R| = [33m1.624274e+03[39m
     13 Linear |R| = [33m1.613167e+03[39m
     14 Linear |R| = [33m1.597052e+03[39m
     15 Linear |R| = [33m1.594386e+03[39m
     16 Linear |R| = [33m1.577041e+03[39m
     17 Linear |R| = [33m1.560047e+03[39m
     18 Linear |R| = [33m1.554350e+03[39m
     19 Linear |R| = [33m1.527072e+03[39m
     20 Linear |R| = [33m1.516170e+03[39m
  Linear solve did not converge due to DIVERGED_ITS iterations 20
 2 Nonlinear |R| = [33m1.718295e+03[39m
      0 Linear |R| = [32m1.718295e+03[39m
      1 Linear |R| = [33m1.716507e+03[39m
      2 Linear |R| = [33m1.716299e+03[39m
      3 Linear |R| = [33m1.707897e+03[39m
      4 Linear |R| = [33m1.707781e+03[39m
      5 Linear |R| = [33m1.706961e+03[39m
      6 Linear |R| = [33m1.701575e+03[39m
      7 Linear |R| = [33m1.701391e+03[39m
      8 Linear |R| = [33m1.699498e+03[39m
      9 Linear |R| = [33m1.688468e+03[39m
     10 Linear |R| = [33m1.637629e+03[39m
     11 Linear |R| = [33m1.570303e+03[39m
     12 Linear |R| = [33m1.565771e+03[39m
     13 Linear |R| = [33m1.554884e+03[39m
     14 Linear |R| = [33m1.554767e+03[39m
     15 Linear |R| = [33m1.492127e+03[39m
     16 Linear |R| = [33m1.491994e+03[39m
     17 Linear |R| = [33m1.485808e+03[39m
     18 Linear |R| = [33m1.484688e+03[39m
     19 Linear |R| = [33m1.459820e+03[39m
     20 Linear |R| = [33m1.444411e+03[39m
  Linear solve did not converge due to DIVERGED_ITS iterations 20
 3 Nonlinear |R| = [33m1.718295e+03[39m
      0 Linear |R| = [32m1.718295e+03[39m
      1 Linear |R| = [33m1.713971e+03[39m
      2 Linear |R| = [33m1.665271e+03[39m
      3 Linear |R| = [33m1.654939e+03[39m
      4 Linear |R| = [33m1.651231e+03[39m
      5 Linear |R| = [33m1.612334e+03[39m
      6 Linear |R| = [33m1.598434e+03[39m
      7 Linear |R| = [33m1.589777e+03[39m
      8 Linear |R| = [33m1.589625e+03[39m
      9 Linear |R| = [33m1.580409e+03[39m
     10 Linear |R| = [33m1.579993e+03[39m
     11 Linear |R| = [33m1.579843e+03[39m
     12 Linear |R| = [33m1.577475e+03[39m
     13 Linear |R| = [33m1.546791e+03[39m
     14 Linear |R| = [33m1.501429e+03[39m
     15 Linear |R| = [33m1.470877e+03[39m
     16 Linear |R| = [33m1.464059e+03[39m
     17 Linear |R| = [33m1.457661e+03[39m
     18 Linear |R| = [33m1.453214e+03[39m
     19 Linear |R| = [33m1.453165e+03[39m
     20 Linear |R| = [33m1.442758e+03[39m
  Linear solve did not converge due to DIVERGED_ITS iterations 20
 4 Nonlinear |R| = [33m1.718295e+03[39m
      0 Linear |R| = [32m1.718295e+03[39m
      1 Linear |R| = [33m1.718294e+03[39m
      2 Linear |R| = [33m1.673418e+03[39m
      3 Linear |R| = [33m1.673402e+03[39m
      4 Linear |R| = [33m1.671953e+03[39m
      5 Linear |R| = [33m1.671812e+03[39m
      6 Linear |R| = [33m1.643905e+03[39m
      7 Linear |R| = [33m1.643794e+03[39m
      8 Linear |R| = [33m1.573643e+03[39m
      9 Linear |R| = [33m1.559753e+03[39m
     10 Linear |R| = [33m1.559753e+03[39m
     11 Linear |R| = [33m1.557003e+03[39m
     12 Linear |R| = [33m1.480550e+03[39m
     13 Linear |R| = [33m1.480544e+03[39m
     14 Linear |R| = [33m1.480544e+03[39m
     15 Linear |R| = [33m1.470528e+03[39m
     16 Linear |R| = [33m1.462307e+03[39m
     17 Linear |R| = [33m1.459973e+03[39m
     18 Linear |R| = [33m1.458498e+03[39m
     19 Linear |R| = [33m1.457376e+03[39m
     20 Linear |R| = [33m1.456543e+03[39m
  Linear solve did not converge due to DIVERGED_ITS iterations 20
 5 Nonlinear |R| = [33m1.718268e+03[39m
      0 Linear |R| = [32m1.718268e+03[39m
      1 Linear |R| = [33m1.712776e+03[39m
      2 Linear |R| = [33m1.712572e+03[39m
      3 Linear |R| = [33m1.704225e+03[39m
      4 Linear |R| = [33m1.701035e+03[39m
      5 Linear |R| = [33m1.692757e+03[39m
      6 Linear |R| = [33m1.649174e+03[39m
      7 Linear |R| = [33m1.644835e+03[39m
      8 Linear |R| = [33m1.644047e+03[39m
      9 Linear |R| = [33m1.622874e+03[39m
     10 Linear |R| = [33m1.560153e+03[39m
     11 Linear |R| = [33m1.559093e+03[39m
     12 Linear |R| = [33m1.549099e+03[39m
     13 Linear |R| = [33m1.544899e+03[39m
     14 Linear |R| = [33m1.539470e+03[39m
     15 Linear |R| = [33m1.538926e+03[39m
     16 Linear |R| = [33m1.518456e+03[39m
     17 Linear |R| = [33m1.513898e+03[39m
     18 Linear |R| = [33m1.478802e+03[39m
     19 Linear |R| = [33m1.478801e+03[39m
     20 Linear |R| = [33m1.474999e+03[39m
  Linear solve did not converge due to DIVERGED_ITS iterations 20
 6 Nonlinear |R| = [33m1.718246e+03[39m
      0 Linear |R| = [32m1.718246e+03[39m
      1 Linear |R| = [33m1.711776e+03[39m
      2 Linear |R| = [33m1.683960e+03[39m
      3 Linear |R| = [33m1.683770e+03[39m
      4 Linear |R| = [33m1.677944e+03[39m
      5 Linear |R| = [33m1.669294e+03[39m
      6 Linear |R| = [33m1.611665e+03[39m
      7 Linear |R| = [33m1.602154e+03[39m
      8 Linear |R| = [33m1.601160e+03[39m
      9 Linear |R| = [33m1.601106e+03[39m
     10 Linear |R| = [33m1.589035e+03[39m
     11 Linear |R| = [33m1.587428e+03[39m
     12 Linear |R| = [33m1.583947e+03[39m
     13 Linear |R| = [33m1.555623e+03[39m
     14 Linear |R| = [33m1.546473e+03[39m
     15 Linear |R| = [33m1.523530e+03[39m
     16 Linear |R| = [33m1.502550e+03[39m
     17 Linear |R| = [33m1.501363e+03[39m
     18 Linear |R| = [33m1.501310e+03[39m
     19 Linear |R| = [33m1.491721e+03[39m
     20 Linear |R| = [33m1.445091e+03[39m
  Linear solve did not converge due to DIVERGED_ITS iterations 20
 7 Nonlinear |R| = [33m1.718246e+03[39m
      0 Linear |R| = [32m1.718246e+03[39m
      1 Linear |R| = [33m1.700196e+03[39m
      2 Linear |R| = [33m1.679387e+03[39m
      3 Linear |R| = [33m1.653110e+03[39m
      4 Linear |R| = [33m1.653009e+03[39m
      5 Linear |R| = [33m1.648552e+03[39m
      6 Linear |R| = [33m1.639597e+03[39m
      7 Linear |R| = [33m1.636391e+03[39m
      8 Linear |R| = [33m1.629940e+03[39m
      9 Linear |R| = [33m1.627762e+03[39m
     10 Linear |R| = [33m1.620219e+03[39m
     11 Linear |R| = [33m1.619253e+03[39m
     12 Linear |R| = [33m1.613916e+03[39m
     13 Linear |R| = [33m1.599297e+03[39m
     14 Linear |R| = [33m1.598910e+03[39m
     15 Linear |R| = [33m1.594185e+03[39m
     16 Linear |R| = [33m1.593233e+03[39m
     17 Linear |R| = [33m1.588394e+03[39m
     18 Linear |R| = [32m1.473284e+03[39m
     19 Linear |R| = [33m1.473108e+03[39m
     20 Linear |R| = [33m1.465551e+03[39m
  Linear solve did not converge due to DIVERGED_ITS iterations 20
 8 Nonlinear |R| = [33m1.718238e+03[39m
      0 Linear |R| = [32m1.718238e+03[39m
      1 Linear |R| = [33m1.716310e+03[39m
      2 Linear |R| = [33m1.715034e+03[39m
      3 Linear |R| = [33m1.709712e+03[39m
      4 Linear |R| = [33m1.709507e+03[39m
      5 Linear |R| = [33m1.671543e+03[39m
      6 Linear |R| = [33m1.671228e+03[39m
      7 Linear |R| = [33m1.593492e+03[39m
      8 Linear |R| = [33m1.593467e+03[39m
      9 Linear |R| = [33m1.590538e+03[39m
     10 Linear |R| = [33m1.590253e+03[39m
     11 Linear |R| = [33m1.588703e+03[39m
     12 Linear |R| = [33m1.588587e+03[39m
     13 Linear |R| = [33m1.588585e+03[39m
     14 Linear |R| = [33m1.577845e+03[39m
     15 Linear |R| = [33m1.561069e+03[39m
     16 Linear |R| = [33m1.559954e+03[39m
     17 Linear |R| = [33m1.550688e+03[39m
     18 Linear |R| = [33m1.550577e+03[39m
     19 Linear |R| = [33m1.523055e+03[39m
     20 Linear |R| = [33m1.522777e+03[39m
  Linear solve did not converge due to DIVERGED_ITS iterations 20
 9 Nonlinear |R| = [33m1.718237e+03[39m
      0 Linear |R| = [32m1.718237e+03[39m
      1 Linear |R| = [33m1.710622e+03[39m
[mpiexec@xia-virtual-machine] Sending Ctrl-C to processes as requested
[mpiexec@xia-virtual-machine] Press Ctrl-C again to force abort
