

Framework Information:
MOOSE Version:           git commit fcafd43481 on 2021-04-09
LibMesh Version:         
PETSc Version:           3.14.2
SLEPc Version:           3.14.0
Current Time:            Sat May 22 15:19:06 2021
Executable Timestamp:    Sun May 16 21:23:26 2021

Parallelism:
  Num Processors:          10
  Num Threads:             1

Mesh: 
  Parallel Type:           replicated
  Mesh Dimension:          2
  Spatial Dimension:       2
  Nodes:                   
    Total:                 4225
    Local:                 460
  Elems:                   
    Total:                 4096
    Local:                 410
  Num Subdomains:          1
  Num Partitions:          10
  Partitioner:             metis

Nonlinear System:
  Num DOFs:                50700
  Num Local DOFs:          5520
  Variables:               { "gr0" "gr1" "gr2" "gr3" "gr4" ... "gr7" "gr8" "gr9" "disp_x" "disp_y" } 
  Finite Element Types:    "LAGRANGE" 
  Approximation Orders:    "FIRST" 

Auxiliary System:
  Num DOFs:                49281
  Num Local DOFs:          4970
  Variables:               "bnds" { "gt_indices" "unique_grains" "vonmises_stress" "C1111" "phi1" ... 
                             "phi2" "EBSD_grain" "RGB_x" "RGB_y" "RGB_z" } 
  Finite Element Types:    "LAGRANGE" "MONOMIAL" 
  Approximation Orders:    "FIRST" "CONSTANT" 

Execution Information:
  Executioner:             Transient
  TimeStepper:             IterationAdaptiveDT
  Solver Mode:             Preconditioned JFNK
  PETSc Preconditioner:    hypre boomeramg 

Grain Adjacency Matrix:
0  1  0  0  0  0  0  0  0  0  0  0  0  0  1  0  0  0  0  0  0  0  0  0  0  0  0  0  0  0  0  0  0  0  0  0  0  0  0  0  0  0  0  0  0  0  0  0  0  0  0  0  0  0  0  0  0  0  0  0  0  0  0  0  0  0  0  0  0  0  0  0  0  0  0  0  0  0  0  0  0  0  0  0  0  0  0  0  0  0  0  0  0  0  0  0  0  0  0  0  0  0  0  0  0  0  0  0  0  0  0  
1  0  1  1  0  0  0  0  0  0  0  0  0  0  1  1  1  0  0  1  0  0  1  0  0  1  0  0  0  1  0  0  0  1  0  0  0  0  0  0  0  0  0  0  0  0  0  0  0  0  0  0  0  0  0  0  0  0  0  0  0  0  0  0  0  0  0  0  0  0  0  0  0  0  0  0  0  0  0  0  0  0  0  0  0  0  0  0  0  0  0  0  0  0  0  0  0  0  0  0  0  0  0  0  0  0  0  0  0  0  0  
0  1  0  1  0  0  0  0  0  0  0  0  0  0  0  1  1  0  0  0  0  0  0  0  0  0  0  0  0  0  0  0  0  0  0  0  0  0  0  0  0  0  0  0  0  0  0  0  0  0  0  0  0  0  0  0  0  0  0  0  0  0  0  0  0  0  0  0  0  0  0  0  0  0  0  0  0  0  0  0  0  0  0  0  0  0  0  0  0  0  0  0  0  0  0  0  0  0  0  0  0  0  0  0  0  0  0  0  0  0  0  
0  1  1  0  1  1  0  0  0  0  0  0  1  0  0  1  1  0  0  0  1  1  0  1  0  0  1  0  0  0  0  0  0  0  0  0  0  0  0  0  0  0  0  0  0  0  0  0  0  0  0  0  0  0  0  0  0  0  0  0  0  0  0  0  0  0  0  0  0  0  0  0  0  0  0  0  0  0  0  0  0  0  0  0  0  0  0  0  0  0  0  0  0  0  0  0  0  0  0  0  0  0  0  0  0  0  0  0  0  0  0  
0  0  0  1  0  1  1  0  0  0  0  0  1  0  0  0  0  0  0  0  0  0  0  0  0  0  0  0  0  0  0  0  0  0  0  0  0  0  0  0  0  0  0  0  0  0  0  0  0  0  0  0  0  0  0  0  0  0  0  0  0  0  0  0  0  0  0  0  0  0  0  0  0  0  0  0  0  0  0  0  0  0  0  0  0  0  0  0  0  0  0  0  0  0  0  0  0  0  0  0  0  0  0  0  0  0  0  0  0  0  0  
0  0  0  1  1  0  1  1  1  0  0  0  1  0  0  0  0  0  0  0  0  0  0  0  0  0  0  0  0  0  0  0  0  0  0  0  0  0  0  0  0  0  0  0  0  0  0  0  0  0  0  0  0  0  0  0  0  0  0  0  0  0  0  0  0  0  0  0  0  0  0  0  0  0  0  0  0  0  0  0  0  0  0  0  0  0  0  0  0  0  0  0  0  0  0  0  0  0  0  0  0  0  0  0  0  0  0  0  0  0  0  
0  0  0  0  1  1  0  1  1  0  0  0  1  1  0  0  0  1  1  0  0  1  0  0  1  0  0  0  0  0  0  0  0  0  0  0  0  0  0  0  0  0  0  0  0  0  0  0  0  0  0  0  0  0  0  0  0  0  0  0  0  0  0  0  0  0  0  0  0  0  0  0  0  0  0  0  0  0  0  0  0  0  0  0  0  0  0  0  0  0  0  0  0  0  0  0  0  0  0  0  0  0  0  0  0  0  0  0  0  0  0  
0  0  0  0  0  1  1  0  1  1  1  0  0  1  0  0  0  0  0  0  0  0  0  0  0  0  0  0  0  0  0  0  0  0  0  0  0  0  0  0  0  0  0  0  0  0  0  0  0  0  0  0  0  0  0  0  0  0  0  0  0  0  0  0  0  0  0  0  0  0  0  0  0  0  0  0  0  0  0  0  0  0  0  0  0  0  0  0  0  0  0  0  0  0  0  0  0  0  0  0  0  0  0  0  0  0  0  0  0  0  0  
0  0  0  0  0  1  1  1  0  1  0  0  0  1  0  0  0  1  0  0  0  0  0  0  0  0  0  0  0  0  0  0  0  0  0  0  0  0  0  0  0  0  0  0  0  0  0  0  0  0  0  0  0  0  0  0  0  0  0  0  0  0  0  0  0  0  0  0  0  0  0  0  0  0  0  0  0  0  0  0  0  0  0  0  0  0  0  0  0  0  0  0  0  0  0  0  0  0  0  0  0  0  0  0  0  0  0  0  0  0  0  
0  0  0  0  0  0  0  1  1  0  1  1  0  1  0  0  0  0  0  0  0  0  0  0  0  0  0  0  0  0  0  0  0  0  0  0  0  0  0  0  0  0  0  0  0  0  0  0  0  0  0  0  0  0  0  0  0  0  0  0  0  0  0  0  0  0  0  0  0  0  0  0  0  0  0  0  0  0  0  0  0  0  0  0  0  0  0  0  0  0  0  0  0  0  0  0  0  0  0  0  0  0  0  0  0  0  0  0  0  0  0  
0  0  0  0  0  0  0  1  0  1  0  1  0  1  0  0  0  0  0  0  0  0  0  0  0  0  0  0  0  0  0  0  0  0  0  0  0  0  0  0  0  0  0  0  0  0  0  0  0  0  0  0  0  0  0  0  0  0  0  0  0  0  0  0  0  0  0  0  0  0  0  0  0  0  0  0  0  0  0  0  0  0  0  0  0  0  0  0  0  0  0  0  0  0  0  0  0  0  0  0  0  0  0  0  0  0  0  0  0  0  0  
0  0  0  0  0  0  0  0  0  1  1  0  0  1  0  0  0  0  0  0  0  0  0  0  0  0  0  0  0  0  0  0  0  0  0  0  0  0  0  0  0  0  0  0  0  0  0  0  0  0  0  0  0  0  0  0  0  0  0  0  0  0  0  0  0  0  0  0  0  0  0  0  0  0  0  0  0  0  0  0  0  0  0  0  0  0  0  0  0  0  0  0  0  0  0  0  0  0  0  0  0  0  0  0  0  0  0  0  0  0  0  
0  0  0  1  1  1  1  0  0  0  0  0  0  0  0  0  0  1  1  0  1  1  0  1  0  0  0  0  0  0  0  0  0  0  0  0  0  0  0  0  0  0  0  0  0  0  0  0  0  0  0  0  0  0  0  0  0  0  0  0  0  0  0  0  0  0  0  0  0  0  0  0  0  0  0  0  0  0  0  0  0  0  0  0  0  0  0  0  0  0  0  0  0  0  0  0  0  0  0  0  0  0  0  0  0  0  0  0  0  0  0  
0  0  0  0  0  0  1  1  1  1  1  1  0  0  0  0  0  1  1  0  0  0  0  0  1  0  0  1  0  0  1  0  0  0  0  0  1  1  0  1  1  0  1  0  1  0  0  0  0  0  0  0  0  0  0  0  0  0  0  0  0  0  0  0  0  0  0  0  0  0  0  0  0  0  0  0  0  0  0  0  0  0  0  0  0  0  0  0  0  0  0  0  0  0  0  0  0  0  0  0  0  0  0  0  0  0  0  0  0  0  0  
1  1  0  0  0  0  0  0  0  0  0  0  0  0  0  0  0  0  0  1  0  0  1  0  0  0  0  0  1  0  0  1  0  0  0  0  0  0  0  0  0  0  0  0  0  0  0  0  0  0  0  0  0  0  0  0  0  0  0  0  0  0  0  0  0  0  0  0  0  0  0  0  0  0  0  0  0  0  0  0  0  0  0  0  0  0  0  0  0  0  0  0  0  0  0  0  0  0  0  0  0  0  0  0  0  0  0  0  0  0  0  
0  1  1  1  0  0  0  0  0  0  0  0  0  0  0  0  1  0  0  0  0  0  0  0  0  0  0  0  0  0  0  0  0  0  0  0  0  0  0  0  0  0  0  0  0  0  0  0  0  0  0  0  0  0  0  0  0  0  0  0  0  0  0  0  0  0  0  0  0  0  0  0  0  0  0  0  0  0  0  0  0  0  0  0  0  0  0  0  0  0  0  0  0  0  0  0  0  0  0  0  0  0  0  0  0  0  0  0  0  0  0  
0  1  1  1  0  0  0  0  0  0  0  0  0  0  0  1  0  0  0  0  0  0  0  0  0  1  1  0  0  1  0  0  0  1  0  0  0  0  0  0  0  0  0  0  0  0  0  0  0  0  0  0  0  0  0  0  0  0  0  0  0  0  0  0  0  0  0  0  0  0  0  0  0  0  0  0  0  0  0  0  0  0  0  0  0  0  0  0  0  0  0  0  0  0  0  0  0  0  0  0  0  0  0  0  0  0  0  0  0  0  0  
0  0  0  0  0  0  1  0  1  0  0  0  1  1  0  0  0  0  1  0  0  1  0  0  1  0  0  0  0  0  0  0  0  0  0  0  0  0  0  0  0  0  0  0  0  0  0  0  0  0  0  0  0  0  0  0  0  0  0  0  0  0  0  0  0  0  0  0  0  0  0  0  0  0  0  0  0  0  0  0  0  0  0  0  0  0  0  0  0  0  0  0  0  0  0  0  0  0  0  0  0  0  0  0  0  0  0  0  0  0  0  
0  0  0  0  0  0  1  0  0  0  0  0  1  1  0  0  0  1  0  0  1  1  0  1  1  0  0  0  0  0  0  0  0  0  0  0  0  0  0  0  0  0  0  0  0  0  0  0  0  0  0  0  0  0  0  0  0  0  0  0  0  0  0  0  0  0  0  0  0  0  0  0  0  0  0  0  0  0  0  0  0  0  0  0  0  0  0  0  0  0  0  0  0  0  0  0  0  0  0  0  0  0  0  0  0  0  0  0  0  0  0  
0  1  0  0  0  0  0  0  0  0  0  0  0  0  1  0  0  0  0  0  0  0  1  0  0  1  0  0  1  0  0  1  1  0  1  1  0  0  0  0  0  0  0  0  0  0  0  0  0  0  0  0  0  0  0  0  0  0  0  0  0  0  0  0  0  0  0  0  0  0  0  0  0  0  0  0  0  0  0  0  0  0  0  0  0  0  0  0  0  0  0  0  0  0  0  0  0  0  0  0  0  0  0  0  0  0  0  0  0  0  0  
0  0  0  1  0  0  0  0  0  0  0  0  1  0  0  0  0  0  1  0  0  1  0  1  0  0  0  0  0  0  0  0  0  0  0  0  0  0  0  0  0  0  0  0  0  0  0  0  0  0  0  0  0  0  0  0  0  0  0  0  0  0  0  0  0  0  0  0  0  0  0  0  0  0  0  0  0  0  0  0  0  0  0  0  0  0  0  0  0  0  0  0  0  0  0  0  0  0  0  0  0  0  0  0  0  0  0  0  0  0  0  
0  0  0  1  0  0  1  0  0  0  0  0  1  0  0  0  0  1  1  0  1  0  0  1  1  0  1  0  0  0  0  0  0  0  0  0  0  0  1  0  0  0  0  0  0  1  1  0  0  1  1  0  0  0  0  0  0  0  0  0  0  0  0  0  0  0  0  0  0  0  0  0  0  0  0  0  0  0  0  0  0  0  0  0  0  0  0  0  0  0  0  0  0  0  0  0  0  0  0  0  0  0  0  0  0  0  0  0  0  0  0  
0  1  0  0  0  0  0  0  0  0  0  0  0  0  1  0  0  0  0  1  0  0  0  0  0  1  0  0  1  0  0  1  1  0  0  1  0  0  0  0  0  0  0  0  0  0  0  0  0  0  0  0  0  0  0  0  0  0  0  0  0  0  0  0  0  0  0  0  0  0  0  0  0  0  0  0  0  0  0  0  0  0  0  0  0  0  0  0  0  0  0  0  0  0  0  0  0  0  0  0  0  0  0  0  0  0  0  0  0  0  0  
0  0  0  1  0  0  0  0  0  0  0  0  1  0  0  0  0  0  1  0  1  1  0  0  1  0  1  0  0  0  0  0  0  0  0  0  0  0  1  0  0  0  0  0  0  1  0  0  0  1  0  0  0  0  0  0  0  0  0  0  0  0  0  0  0  0  0  0  0  0  0  0  0  0  0  0  0  0  0  0  0  0  0  0  0  0  0  0  0  0  0  0  0  0  0  0  0  0  0  0  0  0  0  0  0  0  0  0  0  0  0  
0  0  0  0  0  0  1  0  0  0  0  0  0  1  0  0  0  1  1  0  0  1  0  1  0  0  0  0  0  0  0  0  0  0  0  0  1  0  1  1  0  0  0  0  0  0  1  0  0  0  1  0  0  0  0  0  0  0  0  0  0  0  0  0  0  0  0  0  0  0  0  0  0  0  0  0  0  0  0  0  0  0  0  0  0  0  0  0  0  0  0  0  0  0  0  0  0  0  0  0  0  0  0  0  0  0  0  0  0  0  0  
0  1  0  0  0  0  0  0  0  0  0  0  0  0  0  0  1  0  0  1  0  0  1  0  0  0  0  0  1  1  0  1  1  1  1  1  0  0  0  0  0  0  0  1  0  0  0  1  0  0  0  0  0  0  0  0  0  0  0  0  0  0  0  0  0  0  0  0  0  0  0  0  0  0  0  0  0  0  0  0  0  0  0  0  0  0  0  0  0  0  0  0  0  0  0  0  0  0  0  0  0  0  0  0  0  0  0  0  0  0  0  
0  0  0  1  0  0  0  0  0  0  0  0  0  0  0  0  1  0  0  0  0  1  0  1  0  0  0  0  0  0  0  0  0  1  0  0  0  0  1  0  0  1  0  0  0  1  0  0  1  1  0  0  1  0  1  1  0  1  0  0  0  0  0  0  1  0  0  1  0  0  0  0  0  0  0  0  0  0  0  0  0  0  0  0  0  0  0  0  0  0  0  0  0  0  0  0  0  0  0  0  0  0  0  0  0  0  0  0  0  0  0  
0  0  0  0  0  0  0  0  0  0  0  0  0  1  0  0  0  0  0  0  0  0  0  0  0  0  0  0  0  0  1  0  0  0  0  0  0  1  0  0  0  0  0  0  0  0  0  0  0  0  0  0  0  0  0  0  0  0  0  0  0  0  0  0  0  0  0  0  0  0  0  0  0  0  0  0  0  0  0  0  0  0  0  0  0  0  0  0  0  0  0  0  0  0  0  0  0  0  0  0  0  0  0  0  0  0  0  0  0  0  0  
0  0  0  0  0  0  0  0  0  0  0  0  0  0  1  0  0  0  0  1  0  0  1  0  0  1  0  0  0  0  0  1  1  0  1  1  0  0  0  0  0  0  0  1  0  0  0  0  0  0  0  0  0  0  0  0  0  0  0  0  0  0  0  0  0  0  0  0  0  0  0  0  0  0  0  0  0  0  0  0  0  0  0  0  0  0  0  0  0  0  0  0  0  0  0  0  0  0  0  0  0  0  0  0  0  0  0  0  0  0  0  
0  1  0  0  0  0  0  0  0  0  0  0  0  0  0  0  1  0  0  0  0  0  0  0  0  1  0  0  0  0  0  0  0  1  0  0  0  0  0  0  0  0  0  0  0  0  0  0  0  0  0  0  0  0  0  0  0  0  0  0  0  0  0  0  0  0  0  0  0  0  0  0  0  0  0  0  0  0  0  0  0  0  0  0  0  0  0  0  0  0  0  0  0  0  0  0  0  0  0  0  0  0  0  0  0  0  0  0  0  0  0  
0  0  0  0  0  0  0  0  0  0  0  0  0  1  0  0  0  0  0  0  0  0  0  0  0  0  0  1  0  0  0  0  0  0  0  0  1  1  0  1  1  0  1  0  1  0  0  0  0  0  0  0  0  0  0  0  0  0  0  0  0  0  0  0  0  0  0  0  0  0  0  0  0  0  0  0  0  0  0  0  0  0  0  0  0  0  0  0  0  0  0  0  0  0  0  0  0  0  0  0  0  0  0  0  0  0  0  0  0  0  0  
0  0  0  0  0  0  0  0  0  0  0  0  0  0  1  0  0  0  0  1  0  0  1  0  0  1  0  0  1  0  0  0  1  0  1  1  0  0  0  0  0  0  0  0  0  0  0  0  0  0  0  0  0  0  0  0  0  0  0  0  0  0  0  0  0  0  0  0  0  0  0  0  0  0  0  0  0  0  0  0  0  0  0  0  0  0  0  0  0  0  0  0  0  0  0  0  0  0  0  0  0  0  0  0  0  0  0  0  0  0  0  
0  0  0  0  0  0  0  0  0  0  0  0  0  0  0  0  0  0  0  1  0  0  1  0  0  1  0  0  1  0  0  1  0  0  1  1  0  0  0  0  0  0  0  1  0  0  0  0  0  0  0  0  0  0  0  0  0  0  0  0  0  0  0  0  0  0  0  0  0  0  0  0  0  0  0  0  0  0  0  0  0  0  0  0  0  0  0  0  0  0  0  0  0  0  0  0  0  0  0  0  0  0  0  0  0  0  0  0  0  0  0  
0  1  0  0  0  0  0  0  0  0  0  0  0  0  0  0  1  0  0  0  0  0  0  0  0  1  1  0  0  1  0  0  0  0  0  1  0  0  0  0  0  1  0  1  0  0  0  1  1  0  0  0  1  0  1  0  1  0  0  1  1  1  0  1  0  0  0  0  0  1  0  0  0  0  0  0  0  0  0  0  0  0  0  0  0  0  0  0  0  0  0  0  0  0  0  0  0  0  0  0  0  0  0  0  0  0  0  0  0  0  0  
0  0  0  0  0  0  0  0  0  0  0  0  0  0  0  0  0  0  0  1  0  0  0  0  0  1  0  0  1  0  0  1  1  0  0  1  0  0  0  0  0  0  0  1  0  0  0  1  0  0  0  0  0  1  0  0  0  0  0  0  0  0  0  0  0  0  0  0  0  0  0  0  0  0  0  0  0  0  0  0  0  0  0  0  0  0  0  0  0  0  0  0  0  0  0  0  0  0  0  0  0  0  0  0  0  0  0  0  0  0  0  
0  0  0  0  0  0  0  0  0  0  0  0  0  0  0  0  0  0  0  1  0  0  1  0  0  1  0  0  1  0  0  1  1  1  1  0  0  0  0  0  0  0  0  1  0  0  0  1  0  0  0  0  0  0  0  0  0  0  0  0  0  0  0  0  0  0  0  0  0  0  0  0  0  0  0  0  0  0  0  0  0  0  0  0  0  0  0  0  0  0  0  0  0  0  0  0  0  0  0  0  0  0  0  0  0  0  0  0  0  0  0  
0  0  0  0  0  0  0  0  0  0  0  0  0  1  0  0  0  0  0  0  0  0  0  0  1  0  0  0  0  0  1  0  0  0  0  0  0  0  0  1  1  0  0  0  1  0  0  0  0  0  0  0  0  0  0  0  0  0  0  0  0  0  0  0  0  0  0  0  0  0  0  0  0  0  0  0  0  0  0  0  0  0  0  0  0  0  0  0  0  0  0  0  0  0  0  0  0  0  0  0  0  0  0  0  0  0  0  0  0  0  0  
0  0  0  0  0  0  0  0  0  0  0  0  0  1  0  0  0  0  0  0  0  0  0  0  0  0  0  1  0  0  1  0  0  0  0  0  0  0  0  1  1  0  1  0  1  0  0  0  0  0  0  0  0  0  0  0  0  0  0  0  0  0  0  0  0  0  0  0  0  0  0  0  0  0  0  0  0  0  0  0  0  0  0  0  0  0  0  0  0  0  0  0  0  0  0  0  0  0  0  0  0  0  0  0  0  0  0  0  0  0  0  
0  0  0  0  0  0  0  0  0  0  0  0  0  0  0  0  0  0  0  0  0  1  0  1  1  0  1  0  0  0  0  0  0  0  0  0  0  0  0  1  0  0  0  0  0  1  1  0  0  1  1  0  0  0  0  0  0  0  0  0  0  0  0  0  0  0  0  0  0  0  0  0  0  0  0  0  0  0  0  0  0  0  0  0  0  0  0  0  0  0  0  0  0  0  0  0  0  0  0  0  0  0  0  0  0  0  0  0  0  0  0  
0  0  0  0  0  0  0  0  0  0  0  0  0  1  0  0  0  0  0  0  0  0  0  0  1  0  0  0  0  0  1  0  0  0  0  0  1  1  1  0  1  0  1  0  1  0  1  0  0  0  1  1  0  0  0  0  0  0  1  0  0  0  0  0  0  0  0  0  0  0  0  0  0  0  0  0  0  0  0  0  0  0  0  0  0  0  0  0  0  0  0  0  0  0  0  0  0  0  0  0  0  0  0  0  0  0  0  0  0  0  0  
0  0  0  0  0  0  0  0  0  0  0  0  0  1  0  0  0  0  0  0  0  0  0  0  0  0  0  0  0  0  1  0  0  0  0  0  1  1  0  1  0  0  1  0  1  0  0  0  0  0  0  0  0  0  0  0  0  0  0  0  0  0  0  0  0  0  0  0  0  0  0  0  0  0  0  0  0  0  0  0  0  0  0  0  0  0  0  0  0  0  0  0  0  0  0  0  0  0  0  0  0  0  0  0  0  0  0  0  0  0  0  
0  0  0  0  0  0  0  0  0  0  0  0  0  0  0  0  0  0  0  0  0  0  0  0  0  0  1  0  0  0  0  0  0  1  0  0  0  0  0  0  0  0  0  0  0  1  0  0  1  0  0  0  1  0  1  0  1  0  0  0  0  0  0  0  0  0  0  0  0  0  0  0  0  0  0  0  0  0  0  0  0  0  0  0  0  0  0  0  0  0  0  0  0  0  0  0  0  0  0  0  0  0  0  0  0  0  0  0  0  0  0  
0  0  0  0  0  0  0  0  0  0  0  0  0  1  0  0  0  0  0  0  0  0  0  0  0  0  0  0  0  0  1  0  0  0  0  0  0  1  0  1  1  0  0  0  1  0  0  0  0  0  0  1  0  0  0  0  0  0  1  0  0  0  0  0  0  0  0  0  0  0  0  0  0  0  1  1  0  0  0  1  0  0  0  0  1  0  0  0  0  0  0  0  0  0  0  0  0  0  0  0  0  0  0  0  0  0  0  0  0  0  0  
0  0  0  0  0  0  0  0  0  0  0  0  0  0  0  0  0  0  0  0  0  0  0  0  0  1  0  0  1  0  0  0  1  1  1  1  0  0  0  0  0  0  0  0  0  0  0  1  0  0  0  0  0  1  0  0  0  0  0  0  0  0  0  0  0  0  0  0  0  0  0  0  0  0  0  0  0  0  0  0  0  0  0  0  0  0  0  0  0  0  0  0  0  0  0  0  0  0  0  0  0  0  0  0  0  0  0  0  0  0  0  
0  0  0  0  0  0  0  0  0  0  0  0  0  1  0  0  0  0  0  0  0  0  0  0  0  0  0  0  0  0  1  0  0  0  0  0  1  1  0  1  1  0  1  0  0  0  0  0  0  0  0  0  0  0  0  0  0  0  0  0  0  0  0  0  0  0  0  0  0  0  0  0  0  0  0  0  0  0  0  0  0  0  0  0  0  0  0  0  0  0  0  0  0  0  0  0  0  0  0  0  0  0  0  0  0  0  0  0  0  0  0  
0  0  0  0  0  0  0  0  0  0  0  0  0  0  0  0  0  0  0  0  0  1  0  1  0  0  1  0  0  0  0  0  0  0  0  0  0  0  1  0  0  1  0  0  0  0  0  0  1  1  1  0  1  0  0  1  0  1  0  0  0  0  0  0  0  0  0  0  1  0  0  0  0  0  0  0  0  0  0  0  0  0  0  0  0  0  0  0  0  0  0  0  0  0  0  0  0  0  0  0  0  0  0  0  0  0  0  0  0  0  0  
0  0  0  0  0  0  0  0  0  0  0  0  0  0  0  0  0  0  0  0  0  1  0  0  1  0  0  0  0  0  0  0  0  0  0  0  0  0  1  1  0  0  0  0  0  0  0  0  0  1  1  1  0  0  0  0  0  0  1  0  0  0  0  0  0  0  0  0  0  0  0  0  0  0  0  0  0  0  0  0  0  0  0  0  0  0  0  0  0  0  0  0  0  0  0  0  0  0  0  0  0  0  0  0  0  0  0  0  0  0  0  
0  0  0  0  0  0  0  0  0  0  0  0  0  0  0  0  0  0  0  0  0  0  0  0  0  1  0  0  0  0  0  0  0  1  1  1  0  0  0  0  0  0  0  1  0  0  0  0  0  0  0  0  0  1  0  0  0  0  0  1  1  1  0  1  0  0  1  1  0  1  0  1  0  1  0  0  1  1  0  0  1  0  0  1  0  0  1  0  0  1  0  0  0  0  0  0  0  0  0  0  0  0  0  0  0  0  0  0  0  0  0  
0  0  0  0  0  0  0  0  0  0  0  0  0  0  0  0  0  0  0  0  0  0  0  0  0  0  1  0  0  0  0  0  0  1  0  0  0  0  0  0  0  1  0  0  0  1  0  0  0  0  0  0  1  0  1  0  0  0  0  0  0  0  0  0  0  0  0  0  0  0  0  0  0  0  0  0  0  0  0  0  0  0  0  0  0  0  0  0  0  0  0  0  0  0  0  0  0  0  0  0  0  0  0  0  0  0  0  0  0  0  0  
0  0  0  0  0  0  0  0  0  0  0  0  0  0  0  0  0  0  0  0  0  1  0  1  0  0  1  0  0  0  0  0  0  0  0  0  0  0  1  0  0  0  0  0  0  1  1  0  0  0  1  0  0  0  0  1  0  1  0  0  0  0  1  0  0  1  0  0  0  0  0  0  0  0  0  0  0  0  0  0  0  0  0  0  0  0  0  0  0  0  0  0  0  0  0  0  0  0  0  0  0  0  0  0  0  0  0  0  0  0  0  
0  0  0  0  0  0  0  0  0  0  0  0  0  0  0  0  0  0  0  0  0  1  0  0  1  0  0  0  0  0  0  0  0  0  0  0  0  0  1  1  0  0  0  0  0  1  1  0  0  1  0  1  0  0  0  1  0  1  1  0  0  0  1  0  0  1  0  0  0  0  1  0  0  0  1  0  0  0  0  0  0  0  0  0  0  0  0  0  0  0  0  0  0  0  0  0  0  0  0  0  0  0  0  0  0  0  0  0  0  0  0  
0  0  0  0  0  0  0  0  0  0  0  0  0  0  0  0  0  0  0  0  0  0  0  0  0  0  0  0  0  0  0  0  0  0  0  0  0  0  0  1  0  0  1  0  0  0  1  0  0  0  1  0  0  0  0  0  0  0  1  0  0  0  0  0  0  0  0  0  0  0  0  0  0  0  0  0  0  0  0  0  0  0  0  0  0  0  0  0  0  0  0  0  0  0  0  0  0  0  0  0  0  0  0  0  0  0  0  0  0  0  0  
0  0  0  0  0  0  0  0  0  0  0  0  0  0  0  0  0  0  0  0  0  0  0  0  0  0  1  0  0  0  0  0  0  1  0  0  0  0  0  0  0  1  0  0  0  1  0  0  1  0  0  0  0  0  1  1  1  1  0  0  0  1  0  1  1  0  0  1  0  0  0  0  1  0  0  0  0  0  0  0  0  0  0  0  0  0  0  0  0  0  0  0  0  0  0  0  0  0  0  0  0  0  0  0  0  0  0  0  0  0  0  
0  0  0  0  0  0  0  0  0  0  0  0  0  0  0  0  0  0  0  0  0  0  0  0  0  0  0  0  0  0  0  0  0  0  1  0  0  0  0  0  0  0  0  1  0  0  0  1  0  0  0  0  0  0  0  0  0  0  0  0  0  0  0  0  0  0  1  0  0  0  0  0  0  0  0  0  0  0  0  0  0  0  0  0  0  0  0  0  0  0  0  0  0  0  0  0  0  0  0  0  0  0  0  0  0  0  0  0  0  0  0  
0  0  0  0  0  0  0  0  0  0  0  0  0  0  0  0  0  0  0  0  0  0  0  0  0  0  1  0  0  0  0  0  0  1  0  0  0  0  0  0  0  1  0  0  0  0  0  0  1  0  0  0  1  0  0  0  1  0  0  0  0  1  0  1  1  0  0  0  0  0  0  0  0  0  0  0  0  0  0  0  0  0  0  0  0  0  0  0  0  0  0  0  0  0  0  0  0  0  0  0  0  0  0  0  0  0  0  0  0  0  0  
0  0  0  0  0  0  0  0  0  0  0  0  0  0  0  0  0  0  0  0  0  0  0  0  0  0  1  0  0  0  0  0  0  0  0  0  0  0  0  0  0  0  0  0  0  1  0  0  0  1  1  0  1  0  0  0  0  1  0  0  0  0  1  0  1  1  0  1  1  0  0  0  1  0  0  0  0  0  0  0  0  0  0  0  0  0  0  0  0  0  0  0  0  0  0  0  0  0  0  0  0  0  0  0  0  0  0  0  0  0  0  
0  0  0  0  0  0  0  0  0  0  0  0  0  0  0  0  0  0  0  0  0  0  0  0  0  0  0  0  0  0  0  0  0  1  0  0  0  0  0  0  0  1  0  0  0  0  0  0  0  0  0  0  1  0  1  0  0  1  0  0  1  1  0  1  1  0  0  1  0  0  0  0  0  0  0  0  0  0  0  0  0  0  0  0  0  0  0  0  0  0  0  0  0  0  0  0  0  0  0  0  0  0  0  0  0  0  0  0  0  0  0  
0  0  0  0  0  0  0  0  0  0  0  0  0  0  0  0  0  0  0  0  0  0  0  0  0  0  1  0  0  0  0  0  0  0  0  0  0  0  0  0  0  0  0  0  0  1  0  0  0  1  1  0  1  0  0  1  1  0  0  0  0  0  1  1  1  1  0  1  1  0  0  0  1  0  0  0  0  0  1  0  0  0  0  0  0  0  0  0  0  0  0  0  0  0  0  0  0  0  0  0  0  0  0  0  0  0  0  0  0  0  0  
0  0  0  0  0  0  0  0  0  0  0  0  0  0  0  0  0  0  0  0  0  0  0  0  0  0  0  0  0  0  0  0  0  0  0  0  0  0  0  1  0  0  1  0  0  0  1  0  0  0  1  1  0  0  0  0  0  0  0  0  0  0  0  0  0  1  0  0  0  0  1  0  0  0  1  1  0  0  0  1  0  0  1  0  0  0  0  0  0  0  0  0  0  0  0  0  0  0  0  0  0  0  0  0  0  0  0  0  0  0  0  
0  0  0  0  0  0  0  0  0  0  0  0  0  0  0  0  0  0  0  0  0  0  0  0  0  0  0  0  0  0  0  0  0  1  0  0  0  0  0  0  0  0  0  0  0  0  0  1  0  0  0  0  0  0  0  0  0  0  0  0  1  0  0  0  0  0  0  0  0  0  0  1  0  1  0  0  0  0  0  0  0  0  0  0  0  0  0  0  0  0  0  0  0  0  0  0  0  0  0  0  0  0  0  0  0  0  0  0  0  0  0  
0  0  0  0  0  0  0  0  0  0  0  0  0  0  0  0  0  0  0  0  0  0  0  0  0  0  0  0  0  0  0  0  0  1  0  0  0  0  0  0  0  0  0  0  0  0  0  1  0  0  0  0  0  0  0  0  1  0  0  1  0  1  0  1  0  0  0  0  0  1  0  0  0  0  0  0  0  0  0  0  0  0  0  0  0  0  0  0  0  0  0  0  0  0  0  0  0  0  0  0  0  0  0  0  0  0  0  0  0  0  0  
0  0  0  0  0  0  0  0  0  0  0  0  0  0  0  0  0  0  0  0  0  0  0  0  0  0  0  0  0  0  0  0  0  1  0  0  0  0  0  0  0  0  0  0  0  0  0  1  0  0  0  0  1  0  1  0  1  0  0  0  1  0  0  1  1  0  0  0  0  1  0  0  0  0  0  0  0  1  0  0  0  0  0  0  0  0  0  0  0  0  0  0  0  0  0  0  0  0  0  0  0  0  0  0  0  0  0  0  0  0  0  
0  0  0  0  0  0  0  0  0  0  0  0  0  0  0  0  0  0  0  0  0  0  0  0  0  0  0  0  0  0  0  0  0  0  0  0  0  0  0  0  0  0  0  0  0  0  0  0  0  1  1  0  0  0  0  1  0  1  0  0  0  0  0  0  0  1  0  0  1  0  1  0  0  0  0  0  0  0  0  0  0  0  0  0  0  0  0  0  0  0  0  0  0  0  0  0  0  0  0  0  0  0  0  0  0  0  0  0  0  0  0  
0  0  0  0  0  0  0  0  0  0  0  0  0  0  0  0  0  0  0  0  0  0  0  0  0  0  0  0  0  0  0  0  0  1  0  0  0  0  0  0  0  0  0  0  0  0  0  1  0  0  0  0  1  0  1  0  1  1  0  0  1  1  0  0  1  0  0  1  0  1  0  0  1  0  0  0  0  1  1  0  1  0  0  1  0  0  0  0  0  0  0  0  0  0  0  0  0  0  0  0  0  0  0  0  0  0  0  0  0  0  0  
0  0  0  0  0  0  0  0  0  0  0  0  0  0  0  0  0  0  0  0  0  0  0  0  0  0  1  0  0  0  0  0  0  0  0  0  0  0  0  0  0  0  0  0  0  0  0  0  0  0  0  0  1  0  1  1  1  1  0  0  0  1  0  1  0  0  0  1  1  0  0  0  1  0  0  0  0  0  1  0  0  0  0  0  0  0  0  0  0  0  0  0  0  0  0  0  0  0  0  0  0  0  0  0  0  0  0  0  0  0  0  
0  0  0  0  0  0  0  0  0  0  0  0  0  0  0  0  0  0  0  0  0  0  0  0  0  0  0  0  0  0  0  0  0  0  0  0  0  0  0  0  0  0  0  0  0  0  0  0  0  1  1  0  0  0  0  1  0  1  1  0  0  0  1  0  0  0  0  1  1  0  1  0  1  0  1  1  0  0  1  1  0  1  1  0  0  0  0  0  0  0  0  1  1  0  0  0  0  1  0  0  0  0  0  0  0  0  0  0  0  0  0  
0  0  0  0  0  0  0  0  0  0  0  0  0  0  0  0  0  0  0  0  0  0  0  0  0  0  0  0  0  0  0  0  0  0  0  0  0  0  0  0  0  0  0  0  0  0  0  1  0  0  0  0  0  1  0  0  0  0  0  0  0  0  0  0  0  0  0  0  0  0  0  1  0  1  0  0  1  0  0  0  0  0  0  0  0  1  0  0  0  0  0  0  0  0  0  0  0  0  0  0  0  0  0  0  0  0  0  0  0  0  0  
0  0  0  0  0  0  0  0  0  0  0  0  0  0  0  0  0  0  0  0  0  0  0  0  0  0  1  0  0  0  0  0  0  0  0  0  0  0  0  0  0  0  0  0  0  0  0  1  0  0  0  0  1  0  0  1  1  1  0  0  0  0  0  1  1  1  0  0  1  1  0  0  1  0  0  0  0  1  1  0  1  0  0  0  0  0  0  0  0  0  0  0  0  0  0  0  0  0  0  0  0  0  0  0  0  0  0  0  0  0  0  
0  0  0  0  0  0  0  0  0  0  0  0  0  0  0  0  0  0  0  0  0  0  0  0  0  0  0  0  0  0  0  0  0  0  0  0  0  0  0  0  0  0  0  0  0  1  0  0  0  0  0  0  0  0  0  1  0  1  0  0  0  0  1  0  1  1  0  1  0  0  0  0  1  0  0  0  0  0  0  0  0  1  0  0  0  0  0  0  0  0  0  0  0  0  0  0  0  0  0  0  0  0  0  0  0  0  0  0  0  0  0  
0  0  0  0  0  0  0  0  0  0  0  0  0  0  0  0  0  0  0  0  0  0  0  0  0  0  0  0  0  0  0  0  0  1  0  0  0  0  0  0  0  0  0  0  0  0  0  1  0  0  0  0  0  0  0  0  0  0  0  0  1  1  0  1  0  0  0  1  0  0  0  0  0  0  0  0  0  1  0  0  0  0  0  0  0  0  0  0  0  0  0  0  0  0  0  0  0  0  0  0  0  0  0  0  0  0  0  0  0  0  0  
0  0  0  0  0  0  0  0  0  0  0  0  0  0  0  0  0  0  0  0  0  0  0  0  0  0  0  0  0  0  0  0  0  0  0  0  0  0  0  0  0  0  0  0  0  0  0  0  0  0  1  0  0  0  0  0  0  0  1  0  0  0  1  0  0  1  0  0  0  0  0  0  0  0  1  1  0  0  0  1  0  0  1  0  0  0  0  0  0  0  0  0  0  0  0  0  0  0  0  0  0  0  0  0  0  0  0  0  0  0  0  
0  0  0  0  0  0  0  0  0  0  0  0  0  0  0  0  0  0  0  0  0  0  0  0  0  0  0  0  0  0  0  0  0  0  0  0  0  0  0  0  0  0  0  0  0  0  0  1  0  0  0  0  0  0  0  0  0  0  0  1  0  0  0  0  0  0  1  0  0  0  0  0  0  1  0  0  1  0  0  0  0  0  0  0  0  1  0  0  0  0  0  0  0  0  0  0  0  0  0  0  0  0  0  0  0  0  0  0  0  0  0  
0  0  0  0  0  0  0  0  0  0  0  0  0  0  0  0  0  0  0  0  0  0  0  0  0  0  0  0  0  0  0  0  0  0  0  0  0  0  0  0  0  0  0  0  0  0  0  0  0  0  0  0  1  0  0  1  0  1  0  0  0  0  0  1  1  1  0  1  1  0  0  0  0  0  0  0  0  0  1  0  1  1  0  0  0  0  0  1  0  0  0  1  1  0  0  1  1  1  0  0  0  0  0  0  0  0  0  0  0  0  0  
0  0  0  0  0  0  0  0  0  0  0  0  0  0  0  0  0  0  0  0  0  0  0  0  0  0  0  0  0  0  0  0  0  0  0  0  0  0  0  0  0  0  0  0  0  0  0  1  0  0  0  0  0  0  0  0  0  0  0  1  0  0  0  0  0  0  1  0  0  0  0  1  0  0  0  0  1  0  0  0  0  0  0  1  0  1  1  0  0  1  0  0  0  0  0  0  0  0  1  0  1  0  0  1  1  0  0  0  0  0  0  
0  0  0  0  0  0  0  0  0  0  0  0  0  0  0  0  0  0  0  0  0  0  0  0  0  0  0  0  0  0  0  0  0  0  0  0  0  0  0  0  0  0  1  0  0  0  0  0  0  0  1  0  0  0  0  0  0  0  1  0  0  0  0  0  0  1  0  0  0  0  1  0  0  0  0  1  0  0  0  1  0  0  1  0  0  0  0  0  0  0  0  0  0  0  0  0  0  0  0  0  0  0  0  0  0  0  0  0  0  0  0  
0  0  0  0  0  0  0  0  0  0  0  0  0  0  0  0  0  0  0  0  0  0  0  0  0  0  0  0  0  0  0  0  0  0  0  0  0  0  0  0  0  0  1  0  0  0  0  0  0  0  0  0  0  0  0  0  0  0  1  0  0  0  0  0  0  1  0  0  0  0  1  0  0  0  1  0  0  0  0  1  0  0  1  0  1  0  0  0  1  0  0  0  0  1  1  0  0  0  0  1  0  1  0  0  0  0  0  0  0  0  0  
0  0  0  0  0  0  0  0  0  0  0  0  0  0  0  0  0  0  0  0  0  0  0  0  0  0  0  0  0  0  0  0  0  0  0  0  0  0  0  0  0  0  0  0  0  0  0  1  0  0  0  0  0  0  0  0  0  0  0  0  0  0  0  0  0  0  1  0  0  0  0  1  0  1  0  0  0  0  0  0  0  0  0  0  0  1  0  0  0  0  0  0  0  0  0  0  0  0  0  0  0  0  0  0  0  0  0  0  0  0  0  
0  0  0  0  0  0  0  0  0  0  0  0  0  0  0  0  0  0  0  0  0  0  0  0  0  0  0  0  0  0  0  0  0  0  0  0  0  0  0  0  0  0  0  0  0  0  0  1  0  0  0  0  0  0  0  0  0  0  0  0  0  1  0  1  0  0  0  1  0  1  0  0  0  0  0  0  0  0  1  0  1  0  0  1  0  0  0  1  0  1  1  0  0  0  0  1  0  0  0  0  0  0  0  0  0  0  0  0  0  0  0  
0  0  0  0  0  0  0  0  0  0  0  0  0  0  0  0  0  0  0  0  0  0  0  0  0  0  0  0  0  0  0  0  0  0  0  0  0  0  0  0  0  0  0  0  0  0  0  0  0  0  0  0  0  0  0  0  0  1  0  0  0  0  0  1  1  1  0  1  0  0  0  0  1  0  0  0  0  1  0  0  1  1  0  1  0  0  0  1  0  1  1  0  0  0  0  1  1  0  0  0  0  0  0  0  0  0  0  0  0  0  0  
0  0  0  0  0  0  0  0  0  0  0  0  0  0  0  0  0  0  0  0  0  0  0  0  0  0  0  0  0  0  0  0  0  0  0  0  0  0  0  0  0  0  1  0  0  0  0  0  0  0  0  0  0  0  0  0  0  0  1  0  0  0  0  0  0  1  0  0  0  0  1  0  0  0  1  1  0  0  0  0  0  0  1  0  1  0  0  0  1  0  0  1  1  1  1  0  0  0  0  1  0  0  0  0  0  0  0  0  0  0  0  
0  0  0  0  0  0  0  0  0  0  0  0  0  0  0  0  0  0  0  0  0  0  0  0  0  0  0  0  0  0  0  0  0  0  0  0  0  0  0  0  0  0  0  0  0  0  0  1  0  0  0  0  0  0  0  0  0  0  0  0  0  0  0  1  0  0  0  1  0  0  0  0  1  0  0  0  0  1  1  0  0  0  0  1  0  0  0  0  0  0  1  0  0  0  0  0  0  0  0  0  0  0  0  0  0  0  0  0  0  0  0  
0  0  0  0  0  0  0  0  0  0  0  0  0  0  0  0  0  0  0  0  0  0  0  0  0  0  0  0  0  0  0  0  0  0  0  0  0  0  0  0  0  0  0  0  0  0  0  0  0  0  0  0  0  0  0  0  0  0  0  0  0  0  0  0  0  1  0  0  1  0  0  0  1  0  0  0  0  0  1  0  0  0  0  0  0  0  0  1  0  0  0  0  0  0  0  0  0  0  0  0  0  0  0  0  0  0  0  0  0  0  0  
0  0  0  0  0  0  0  0  0  0  0  0  0  0  0  0  0  0  0  0  0  0  0  0  0  0  0  0  0  0  0  0  0  0  0  0  0  0  0  0  0  0  0  0  0  0  0  0  0  0  0  0  0  0  0  0  0  0  1  0  0  0  0  0  0  1  0  0  0  0  1  0  0  0  1  1  0  0  0  1  0  0  0  0  0  0  0  0  0  0  0  0  0  0  0  0  0  0  0  0  0  0  0  0  0  0  0  0  0  0  0  
0  0  0  0  0  0  0  0  0  0  0  0  0  0  0  0  0  0  0  0  0  0  0  0  0  0  0  0  0  0  0  0  0  0  0  0  0  0  0  0  0  0  0  0  0  0  0  1  0  0  0  0  0  0  0  0  0  0  0  0  0  0  0  1  0  0  0  0  0  0  0  0  0  1  0  0  0  1  1  0  1  0  0  0  0  0  1  0  0  1  1  0  0  0  0  0  0  0  0  0  0  0  0  0  0  0  0  0  0  0  0  
0  0  0  0  0  0  0  0  0  0  0  0  0  0  0  0  0  0  0  0  0  0  0  0  0  0  0  0  0  0  0  0  0  0  0  0  0  0  0  0  0  0  1  0  0  0  0  0  0  0  0  0  0  0  0  0  0  0  0  0  0  0  0  0  0  0  0  0  0  0  0  0  0  0  0  1  0  0  0  1  0  0  0  0  0  0  0  0  1  0  0  0  0  1  1  0  0  0  0  1  0  1  1  0  0  1  0  0  0  0  0  
0  0  0  0  0  0  0  0  0  0  0  0  0  0  0  0  0  0  0  0  0  0  0  0  0  0  0  0  0  0  0  0  0  0  0  0  0  0  0  0  0  0  0  0  0  0  0  0  0  0  0  0  0  0  0  0  0  0  0  0  0  0  0  0  0  0  1  0  0  0  0  1  0  1  0  0  1  0  0  0  0  0  0  0  0  0  0  0  0  0  0  0  0  0  0  0  0  0  1  0  1  0  0  1  1  0  0  0  0  0  0  
0  0  0  0  0  0  0  0  0  0  0  0  0  0  0  0  0  0  0  0  0  0  0  0  0  0  0  0  0  0  0  0  0  0  0  0  0  0  0  0  0  0  0  0  0  0  0  1  0  0  0  0  0  0  0  0  0  0  0  0  0  0  0  0  0  0  0  0  0  0  0  0  0  1  0  0  0  0  0  0  0  0  0  1  0  0  0  0  0  1  0  0  0  0  0  0  0  0  0  0  0  0  0  0  0  0  0  0  0  0  0  
0  0  0  0  0  0  0  0  0  0  0  0  0  0  0  0  0  0  0  0  0  0  0  0  0  0  0  0  0  0  0  0  0  0  0  0  0  0  0  0  0  0  0  0  0  0  0  0  0  0  0  0  0  0  0  0  0  0  0  0  0  0  0  0  0  0  0  0  0  0  0  0  1  0  0  0  0  1  1  0  0  1  0  0  0  0  0  0  0  1  1  0  0  0  0  1  1  1  0  0  0  0  0  0  0  0  0  0  0  0  0  
0  0  0  0  0  0  0  0  0  0  0  0  0  0  0  0  0  0  0  0  0  0  0  0  0  0  0  0  0  0  0  0  0  0  0  0  0  0  0  0  0  0  0  0  0  0  0  0  0  0  0  0  0  0  0  0  0  0  0  0  0  0  0  0  0  0  0  0  0  0  0  0  0  0  0  1  0  0  0  1  0  0  0  0  1  0  0  0  0  0  0  0  0  1  1  0  0  0  0  1  0  0  0  0  0  0  0  0  0  0  0  
0  0  0  0  0  0  0  0  0  0  0  0  0  0  0  0  0  0  0  0  0  0  0  0  0  0  0  0  0  0  0  0  0  0  0  0  0  0  0  0  0  0  0  0  0  0  0  1  0  0  0  0  0  0  0  0  0  0  0  0  0  0  0  0  0  0  0  0  0  0  0  0  0  1  0  0  0  1  1  0  0  0  0  1  0  0  1  1  0  0  1  0  0  0  0  1  1  1  1  0  0  0  0  1  1  0  1  0  0  0  0  
0  0  0  0  0  0  0  0  0  0  0  0  0  0  0  0  0  0  0  0  0  0  0  0  0  0  0  0  0  0  0  0  0  0  0  0  0  0  0  0  0  0  0  0  0  0  0  0  0  0  0  0  0  0  0  0  0  0  0  0  0  0  0  0  0  0  0  0  0  0  0  0  0  0  0  0  0  1  1  0  1  0  0  1  0  0  0  1  0  1  0  0  0  0  0  1  1  0  0  0  0  0  0  0  0  0  0  0  0  0  0  
0  0  0  0  0  0  0  0  0  0  0  0  0  0  0  0  0  0  0  0  0  0  0  0  0  0  0  0  0  0  0  0  0  0  0  0  0  0  0  0  0  0  0  0  0  0  0  0  0  0  0  0  0  0  0  0  0  0  0  0  0  0  0  0  0  1  0  0  0  0  0  0  1  0  0  0  0  0  0  1  0  0  0  0  0  0  0  0  0  0  0  0  1  1  1  0  0  1  0  1  0  0  0  0  0  0  0  0  0  0  0  
0  0  0  0  0  0  0  0  0  0  0  0  0  0  0  0  0  0  0  0  0  0  0  0  0  0  0  0  0  0  0  0  0  0  0  0  0  0  0  0  0  0  0  0  0  0  0  0  0  0  0  0  0  0  0  0  0  0  0  0  0  0  0  0  0  1  0  0  0  0  0  0  1  0  0  0  0  0  0  1  0  0  0  0  0  0  0  0  0  0  0  1  0  0  0  0  1  1  0  0  0  0  0  0  0  0  0  0  0  0  0  
0  0  0  0  0  0  0  0  0  0  0  0  0  0  0  0  0  0  0  0  0  0  0  0  0  0  0  0  0  0  0  0  0  0  0  0  0  0  0  0  0  0  0  0  0  0  0  0  0  0  0  0  0  0  0  0  0  0  0  0  0  0  0  0  0  0  0  0  0  0  0  0  0  0  0  1  0  0  0  1  0  0  0  0  1  0  0  0  1  0  0  1  0  0  1  0  0  0  0  1  0  1  0  0  0  1  0  0  0  0  0  
0  0  0  0  0  0  0  0  0  0  0  0  0  0  0  0  0  0  0  0  0  0  0  0  0  0  0  0  0  0  0  0  0  0  0  0  0  0  0  0  0  0  0  0  0  0  0  0  0  0  0  0  0  0  0  0  0  0  0  0  0  0  0  0  0  0  0  0  0  0  0  0  0  0  0  1  0  0  0  1  0  0  0  0  1  0  0  0  1  0  0  1  0  1  0  0  0  0  0  1  0  1  1  0  0  1  0  1  0  1  0  
0  0  0  0  0  0  0  0  0  0  0  0  0  0  0  0  0  0  0  0  0  0  0  0  0  0  0  0  0  0  0  0  0  0  0  0  0  0  0  0  0  0  0  0  0  0  0  0  0  0  0  0  0  0  0  0  0  0  0  0  0  0  0  0  0  0  0  0  0  0  0  0  1  0  0  0  0  1  1  0  0  0  0  0  0  0  0  1  0  1  1  0  0  0  0  0  1  1  0  0  0  0  0  0  0  0  0  0  0  0  0  
0  0  0  0  0  0  0  0  0  0  0  0  0  0  0  0  0  0  0  0  0  0  0  0  0  0  0  0  0  0  0  0  0  0  0  0  0  0  0  0  0  0  0  0  0  0  0  0  0  0  0  0  0  0  0  0  0  0  0  0  0  0  0  0  0  0  0  0  0  0  0  0  1  0  0  0  0  0  1  0  0  0  0  0  0  0  0  1  0  1  1  0  1  0  0  1  0  1  0  0  0  0  0  0  0  0  1  0  1  0  0  
0  0  0  0  0  0  0  0  0  0  0  0  0  0  0  0  0  0  0  0  0  0  0  0  0  0  0  0  0  0  0  0  0  0  0  0  0  0  0  0  0  0  0  0  0  0  0  0  0  0  0  0  0  0  0  0  0  0  0  0  0  0  0  0  0  1  0  0  0  0  0  0  1  0  0  0  0  0  0  0  0  0  0  0  0  0  0  1  0  1  0  1  1  0  0  1  1  0  0  1  0  0  0  0  0  0  1  0  1  0  0  
0  0  0  0  0  0  0  0  0  0  0  0  0  0  0  0  0  0  0  0  0  0  0  0  0  0  0  0  0  0  0  0  0  0  0  0  0  0  0  0  0  0  0  0  0  0  0  0  0  0  0  0  0  0  0  0  0  0  0  0  0  0  0  0  0  0  0  0  0  0  0  0  0  1  0  0  0  0  0  0  0  0  0  0  0  1  0  0  0  1  0  0  0  0  0  0  0  0  0  0  1  0  0  1  1  0  0  0  0  0  0  
0  0  0  0  0  0  0  0  0  0  0  0  0  0  0  0  0  0  0  0  0  0  0  0  0  0  0  0  0  0  0  0  0  0  0  0  0  0  0  0  0  0  0  0  0  0  0  0  0  0  0  0  0  0  0  0  0  0  0  0  0  0  0  0  0  0  0  0  0  0  0  0  0  0  0  1  0  0  0  1  0  0  0  0  1  0  0  0  1  0  0  1  0  1  1  0  0  1  0  0  0  1  1  0  0  1  0  1  0  1  0  
0  0  0  0  0  0  0  0  0  0  0  0  0  0  0  0  0  0  0  0  0  0  0  0  0  0  0  0  0  0  0  0  0  0  0  0  0  0  0  0  0  0  0  0  0  0  0  0  0  0  0  0  0  0  0  0  0  0  0  0  0  0  0  0  0  0  0  0  0  0  0  0  0  1  0  0  0  0  0  0  0  0  0  0  0  1  0  0  0  0  0  0  0  0  0  0  0  0  1  0  0  0  0  1  1  0  0  0  0  0  0  
0  0  0  0  0  0  0  0  0  0  0  0  0  0  0  0  0  0  0  0  0  0  0  0  0  0  0  0  0  0  0  0  0  0  0  0  0  0  0  0  0  0  0  0  0  0  0  0  0  0  0  0  0  0  0  0  0  0  0  0  0  0  0  0  0  0  0  0  0  0  0  0  0  0  0  1  0  0  0  0  0  0  0  0  1  0  0  0  0  0  0  0  0  1  1  0  0  0  0  1  0  0  1  0  0  1  0  1  0  1  0  
0  0  0  0  0  0  0  0  0  0  0  0  0  0  0  0  0  0  0  0  0  0  0  0  0  0  0  0  0  0  0  0  0  0  0  0  0  0  0  0  0  0  0  0  0  0  0  0  0  0  0  0  0  0  0  0  0  0  0  0  0  0  0  0  0  0  0  0  0  0  0  0  0  0  0  0  0  0  0  0  0  0  0  0  1  0  0  0  0  0  0  0  0  0  1  0  0  0  0  1  0  1  0  0  0  1  0  1  0  1  0  
0  0  0  0  0  0  0  0  0  0  0  0  0  0  0  0  0  0  0  0  0  0  0  0  0  0  0  0  0  0  0  0  0  0  0  0  0  0  0  0  0  0  0  0  0  0  0  0  0  0  0  0  0  0  0  0  0  0  0  0  0  0  0  0  0  0  0  0  0  0  0  0  0  1  0  0  0  0  0  0  0  0  0  0  0  1  0  0  0  1  0  0  0  0  0  0  0  0  1  0  1  0  0  0  1  0  0  0  0  0  0  
0  0  0  0  0  0  0  0  0  0  0  0  0  0  0  0  0  0  0  0  0  0  0  0  0  0  0  0  0  0  0  0  0  0  0  0  0  0  0  0  0  0  0  0  0  0  0  0  0  0  0  0  0  0  0  0  0  0  0  0  0  0  0  0  0  0  0  0  0  0  0  0  0  1  0  0  0  0  0  0  0  0  0  0  0  1  0  0  0  1  0  0  0  0  0  0  0  0  1  0  1  0  0  1  0  0  0  0  0  0  0  
0  0  0  0  0  0  0  0  0  0  0  0  0  0  0  0  0  0  0  0  0  0  0  0  0  0  0  0  0  0  0  0  0  0  0  0  0  0  0  0  0  0  0  0  0  0  0  0  0  0  0  0  0  0  0  0  0  0  0  0  0  0  0  0  0  0  0  0  0  0  0  0  0  0  0  0  0  0  0  0  0  0  0  0  1  0  0  0  0  0  0  0  0  1  1  0  0  0  0  1  0  1  1  0  0  0  0  1  0  1  0  
0  0  0  0  0  0  0  0  0  0  0  0  0  0  0  0  0  0  0  0  0  0  0  0  0  0  0  0  0  0  0  0  0  0  0  0  0  0  0  0  0  0  0  0  0  0  0  0  0  0  0  0  0  0  0  0  0  0  0  0  0  0  0  0  0  0  0  0  0  0  0  0  0  0  0  0  0  0  0  0  0  0  0  0  0  0  0  0  0  1  0  0  0  0  0  0  1  1  0  0  0  0  0  0  0  0  0  0  1  0  0  
0  0  0  0  0  0  0  0  0  0  0  0  0  0  0  0  0  0  0  0  0  0  0  0  0  0  0  0  0  0  0  0  0  0  0  0  0  0  0  0  0  0  0  0  0  0  0  0  0  0  0  0  0  0  0  0  0  0  0  0  0  0  0  0  0  0  0  0  0  0  0  0  0  0  0  0  0  0  0  0  0  0  0  0  0  0  0  0  0  0  0  0  0  0  1  0  0  0  0  1  0  1  1  0  0  1  0  0  0  1  0  
0  0  0  0  0  0  0  0  0  0  0  0  0  0  0  0  0  0  0  0  0  0  0  0  0  0  0  0  0  0  0  0  0  0  0  0  0  0  0  0  0  0  0  0  0  0  0  0  0  0  0  0  0  0  0  0  0  0  0  0  0  0  0  0  0  0  0  0  0  0  0  0  0  0  0  0  0  0  0  0  0  0  0  0  0  0  0  0  0  0  0  0  0  0  0  0  1  1  0  0  0  0  0  0  0  0  1  0  0  0  0  
0  0  0  0  0  0  0  0  0  0  0  0  0  0  0  0  0  0  0  0  0  0  0  0  0  0  0  0  0  0  0  0  0  0  0  0  0  0  0  0  0  0  0  0  0  0  0  0  0  0  0  0  0  0  0  0  0  0  0  0  0  0  0  0  0  0  0  0  0  0  0  0  0  0  0  0  0  0  0  0  0  0  0  0  0  0  0  0  0  0  0  0  0  0  1  0  0  0  0  1  0  1  1  0  0  1  0  1  0  0  0  
0  0  0  0  0  0  0  0  0  0  0  0  0  0  0  0  0  0  0  0  0  0  0  0  0  0  0  0  0  0  0  0  0  0  0  0  0  0  0  0  0  0  0  0  0  0  0  0  0  0  0  0  0  0  0  0  0  0  0  0  0  0  0  0  0  0  0  0  0  0  0  0  0  0  0  0  0  0  0  0  0  0  0  0  0  0  0  0  0  0  0  0  0  0  0  0  0  0  0  0  0  0  0  0  0  0  0  0  0  0  0  
Grain to OP assignments:
0  3  4  2  0  3  6  4  1  2  3  1  5  0  2  0  1  2  4  0  0  3  1  1  8  6  4  1  4  0  4  5  2  2  1  3  2  2  5  6  1  0  5  0  3  6  2  7  3  0  7  0  7  2  1  1  6  2  1  0  1  4  4  5  3  5  0  8  0  0  3  2  4  4  0  6  1  6  1  2  0  2  4  2  0  3  0  7  4  3  4  0  3  1  3  0  5  1  1  5  0  4  1  5  2  2  2  0  0  6  0  

Finished inside of GrainTracker


Time Step 0, time = 0

Postprocessor Values:
+----------------+----------------+----------------+----------------+----------------+----------------+
| time           | DOFs           | dt             | grain_tracker  | n_elements     | n_nodes        |
+----------------+----------------+----------------+----------------+----------------+----------------+
|   0.000000e+00 |   0.000000e+00 |   0.000000e+00 |   1.110000e+02 |   4.096000e+03 |   4.225000e+03 |
+----------------+----------------+----------------+----------------+----------------+----------------+


Time Step 1, time = 10, dt = 10
 0 Nonlinear |R| = [32m4.150538e+05[39m
      0 Linear |R| = [32m4.150538e+05[39m
      1 Linear |R| = [32m5.203598e+04[39m
      2 Linear |R| = [32m1.084925e+04[39m
      3 Linear |R| = [32m3.365671e+03[39m
      4 Linear |R| = [32m2.381731e+03[39m
      5 Linear |R| = [32m8.873385e+02[39m
      6 Linear |R| = [32m4.686777e+02[39m
      7 Linear |R| = [32m1.765661e+02[39m
      8 Linear |R| = [32m8.548668e+01[39m
      9 Linear |R| = [32m4.910281e+01[39m
     10 Linear |R| = [32m2.883809e+01[39m
 1 Nonlinear |R| = [32m1.728155e+04[39m
      0 Linear |R| = [32m1.728155e+04[39m
      1 Linear |R| = [32m4.722028e+03[39m
      2 Linear |R| = [32m1.132884e+03[39m
      3 Linear |R| = [32m3.031242e+02[39m
      4 Linear |R| = [32m1.015837e+02[39m
      5 Linear |R| = [32m3.477660e+01[39m
      6 Linear |R| = [32m1.749090e+01[39m
      7 Linear |R| = [32m1.095698e+01[39m
      8 Linear |R| = [32m7.196315e+00[39m
      9 Linear |R| = [32m5.408030e+00[39m
     10 Linear |R| = [32m4.052574e+00[39m
     11 Linear |R| = [32m2.752979e+00[39m
     12 Linear |R| = [32m1.580607e+00[39m
 2 Nonlinear |R| = [32m5.710153e+02[39m
      0 Linear |R| = [32m5.710153e+02[39m
      1 Linear |R| = [32m2.062022e+02[39m
      2 Linear |R| = [32m7.721710e+01[39m
      3 Linear |R| = [32m2.219386e+01[39m
      4 Linear |R| = [32m1.035415e+01[39m
      5 Linear |R| = [32m5.465827e+00[39m
      6 Linear |R| = [32m3.092732e+00[39m
      7 Linear |R| = [32m1.708944e+00[39m
      8 Linear |R| = [32m1.049023e+00[39m
      9 Linear |R| = [32m5.701616e-01[39m
     10 Linear |R| = [32m2.815158e-01[39m
     11 Linear |R| = [32m1.457817e-01[39m
     12 Linear |R| = [32m8.293168e-02[39m
     13 Linear |R| = [32m4.667533e-02[39m
 3 Nonlinear |R| = [32m3.435584e+01[39m
      0 Linear |R| = [32m3.435584e+01[39m
      1 Linear |R| = [32m2.201360e+01[39m
      2 Linear |R| = [32m1.315466e+01[39m
      3 Linear |R| = [32m5.609611e+00[39m
      4 Linear |R| = [32m3.213128e+00[39m
      5 Linear |R| = [32m1.916052e+00[39m
      6 Linear |R| = [32m1.042495e+00[39m
      7 Linear |R| = [32m6.171995e-01[39m
      8 Linear |R| = [32m3.768073e-01[39m
      9 Linear |R| = [32m2.019934e-01[39m
     10 Linear |R| = [32m1.091166e-01[39m
     11 Linear |R| = [32m6.534815e-02[39m
     12 Linear |R| = [32m3.550352e-02[39m
     13 Linear |R| = [32m1.895179e-02[39m
     14 Linear |R| = [32m9.991650e-03[39m
     15 Linear |R| = [32m5.428862e-03[39m
     16 Linear |R| = [32m3.219450e-03[39m
 4 Nonlinear |R| = [32m1.765476e+01[39m
      0 Linear |R| = [32m1.765476e+01[39m
      1 Linear |R| = [32m9.763622e+00[39m
      2 Linear |R| = [32m5.202717e+00[39m
      3 Linear |R| = [32m2.223120e+00[39m
      4 Linear |R| = [32m1.237721e+00[39m
      5 Linear |R| = [32m5.978949e-01[39m
      6 Linear |R| = [32m2.638448e-01[39m
      7 Linear |R| = [32m1.473644e-01[39m
      8 Linear |R| = [32m7.383139e-02[39m
      9 Linear |R| = [32m4.043488e-02[39m
     10 Linear |R| = [32m2.376667e-02[39m
     11 Linear |R| = [32m1.437887e-02[39m
     12 Linear |R| = [32m8.269782e-03[39m
     13 Linear |R| = [32m4.627835e-03[39m
     14 Linear |R| = [32m2.670945e-03[39m
     15 Linear |R| = [32m1.420266e-03[39m
 5 Nonlinear |R| = [32m2.785154e+00[39m
      0 Linear |R| = [32m2.785154e+00[39m
      1 Linear |R| = [32m1.998595e+00[39m
      2 Linear |R| = [32m1.182156e+00[39m
      3 Linear |R| = [32m4.708644e-01[39m
      4 Linear |R| = [32m3.110809e-01[39m
      5 Linear |R| = [32m1.283037e-01[39m
      6 Linear |R| = [32m5.638827e-02[39m
      7 Linear |R| = [32m2.519562e-02[39m
      8 Linear |R| = [32m1.213921e-02[39m
      9 Linear |R| = [32m5.956118e-03[39m
     10 Linear |R| = [32m2.950236e-03[39m
     11 Linear |R| = [32m1.564126e-03[39m
     12 Linear |R| = [32m7.480279e-04[39m
     13 Linear |R| = [32m3.276618e-04[39m
     14 Linear |R| = [32m1.621600e-04[39m
 6 Nonlinear |R| = [32m9.749453e-02[39m
      0 Linear |R| = [32m9.749453e-02[39m
      1 Linear |R| = [32m8.332649e-02[39m
      2 Linear |R| = [32m5.372104e-02[39m
      3 Linear |R| = [32m2.198898e-02[39m
      4 Linear |R| = [32m1.450669e-02[39m
      5 Linear |R| = [32m5.825198e-03[39m
      6 Linear |R| = [32m2.691704e-03[39m
      7 Linear |R| = [32m1.195566e-03[39m
      8 Linear |R| = [32m5.283146e-04[39m
      9 Linear |R| = [32m2.244026e-04[39m
     10 Linear |R| = [32m1.037050e-04[39m
     11 Linear |R| = [32m5.016562e-05[39m
     12 Linear |R| = [32m2.771306e-05[39m
     13 Linear |R| = [32m1.320689e-05[39m
     14 Linear |R| = [32m6.465810e-06[39m
 7 Nonlinear |R| = [32m1.849226e-04[39m
[32m Solve Converged![39m

Grain Tracker Status:
Grains active index 0: 25 -> 25
Grains active index 1: 18 -> 18
Grains active index 2: 18 -> 18
Grains active index 3: 13 -> 14++
Grains active index 4: 14 -> 14
Grains active index 5: 9 -> 10++
Grains active index 6: 8 -> 8
Grains active index 7: 4 -> 4
Grains active index 8: 2 -> 2
Grains active index 9: 0 -> 0

[33mSplit Grain Detected #21 (variable index: 3)
[39m[33mSplit Grain Detected #103 (variable index: 5)
[39m[33mGrain #34 intersects Grain #22 (variable index: 1)
[39m[32m- Depth 0: Remapping grain #34 from variable index 1 to 9 which currently contains zero grains.

[39mFinished inside of GrainTracker


Outlier Variable Residual Norms:
  disp_x: [33m1.035428e-04[39m
  disp_y: [33m1.532163e-04[39m

Postprocessor Values:
+----------------+----------------+----------------+----------------+----------------+----------------+
| time           | DOFs           | dt             | grain_tracker  | n_elements     | n_nodes        |
+----------------+----------------+----------------+----------------+----------------+----------------+
|   0.000000e+00 |   0.000000e+00 |   0.000000e+00 |   1.110000e+02 |   4.096000e+03 |   4.225000e+03 |
|   1.000000e+01 |   9.998100e+04 |   1.000000e+01 |   1.130000e+02 |   4.096000e+03 |   4.225000e+03 |
+----------------+----------------+----------------+----------------+----------------+----------------+


Time Step 2, time = 20, dt = 10
 0 Nonlinear |R| = [32m3.227676e+03[39m
      0 Linear |R| = [32m3.227676e+03[39m
      1 Linear |R| = [32m3.004110e+03[39m
      2 Linear |R| = [33m2.872857e+03[39m
      3 Linear |R| = [33m2.862766e+03[39m
      4 Linear |R| = [33m2.824691e+03[39m
      5 Linear |R| = [33m2.801276e+03[39m
      6 Linear |R| = [33m2.751709e+03[39m
      7 Linear |R| = [33m2.692871e+03[39m
      8 Linear |R| = [33m2.614984e+03[39m
      9 Linear |R| = [33m2.612582e+03[39m
     10 Linear |R| = [33m2.587258e+03[39m
     11 Linear |R| = [33m2.513404e+03[39m
     12 Linear |R| = [33m2.454771e+03[39m
     13 Linear |R| = [33m2.401352e+03[39m
     14 Linear |R| = [33m2.394777e+03[39m
     15 Linear |R| = [33m2.349718e+03[39m
     16 Linear |R| = [33m2.349717e+03[39m
     17 Linear |R| = [33m2.326829e+03[39m
     18 Linear |R| = [32m2.164038e+03[39m
     19 Linear |R| = [32m1.990182e+03[39m
     20 Linear |R| = [33m1.988881e+03[39m
  Linear solve did not converge due to DIVERGED_ITS iterations 20
 1 Nonlinear |R| = [32m2.334230e+03[39m
      0 Linear |R| = [32m2.334230e+03[39m
      1 Linear |R| = [33m2.334197e+03[39m
      2 Linear |R| = [33m2.329446e+03[39m
      3 Linear |R| = [33m2.320708e+03[39m
      4 Linear |R| = [33m2.296898e+03[39m
      5 Linear |R| = [33m2.259265e+03[39m
      6 Linear |R| = [33m2.247228e+03[39m
      7 Linear |R| = [33m2.235033e+03[39m
      8 Linear |R| = [32m2.039911e+03[39m
      9 Linear |R| = [33m1.992405e+03[39m
     10 Linear |R| = [33m1.989806e+03[39m
     11 Linear |R| = [33m1.989342e+03[39m
     12 Linear |R| = [33m1.987116e+03[39m
     13 Linear |R| = [33m1.983284e+03[39m
     14 Linear |R| = [33m1.976886e+03[39m
     15 Linear |R| = [33m1.975692e+03[39m
     16 Linear |R| = [33m1.964593e+03[39m
     17 Linear |R| = [33m1.912669e+03[39m
     18 Linear |R| = [33m1.820493e+03[39m
     19 Linear |R| = [33m1.814904e+03[39m
     20 Linear |R| = [33m1.753413e+03[39m
  Linear solve did not converge due to DIVERGED_ITS iterations 20
 2 Nonlinear |R| = [33m2.334229e+03[39m
      0 Linear |R| = [32m2.334229e+03[39m
      1 Linear |R| = [33m2.327047e+03[39m
      2 Linear |R| = [33m2.327019e+03[39m
      3 Linear |R| = [33m2.312407e+03[39m
      4 Linear |R| = [33m2.269508e+03[39m
      5 Linear |R| = [33m2.259200e+03[39m
      6 Linear |R| = [33m2.256305e+03[39m
      7 Linear |R| = [33m2.255941e+03[39m
      8 Linear |R| = [33m2.255870e+03[39m
      9 Linear |R| = [33m2.225763e+03[39m
     10 Linear |R| = [33m2.225072e+03[39m
     11 Linear |R| = [33m2.176192e+03[39m
     12 Linear |R| = [33m2.163916e+03[39m
     13 Linear |R| = [33m2.158210e+03[39m
     14 Linear |R| = [33m2.151605e+03[39m
     15 Linear |R| = [33m2.075354e+03[39m
     16 Linear |R| = [33m2.017876e+03[39m
     17 Linear |R| = [33m2.012185e+03[39m
     18 Linear |R| = [33m2.010840e+03[39m
     19 Linear |R| = [33m1.971337e+03[39m
     20 Linear |R| = [33m1.971107e+03[39m
  Linear solve did not converge due to DIVERGED_ITS iterations 20
 3 Nonlinear |R| = [33m2.334229e+03[39m
      0 Linear |R| = [32m2.334229e+03[39m
      1 Linear |R| = [33m2.334155e+03[39m
      2 Linear |R| = [33m2.331842e+03[39m
      3 Linear |R| = [33m2.320827e+03[39m
      4 Linear |R| = [33m2.312443e+03[39m
      5 Linear |R| = [33m2.312375e+03[39m
      6 Linear |R| = [33m2.307005e+03[39m
      7 Linear |R| = [33m2.271839e+03[39m
      8 Linear |R| = [33m2.264987e+03[39m
      9 Linear |R| = [33m2.229442e+03[39m
     10 Linear |R| = [33m2.199811e+03[39m
     11 Linear |R| = [33m2.190277e+03[39m
     12 Linear |R| = [33m2.185589e+03[39m
     13 Linear |R| = [33m2.185081e+03[39m
     14 Linear |R| = [33m2.184630e+03[39m
     15 Linear |R| = [33m2.184506e+03[39m
     16 Linear |R| = [33m2.178885e+03[39m
     17 Linear |R| = [33m2.127409e+03[39m
     18 Linear |R| = [33m2.124753e+03[39m
     19 Linear |R| = [33m2.121590e+03[39m
     20 Linear |R| = [33m2.113341e+03[39m
  Linear solve did not converge due to DIVERGED_ITS iterations 20
 4 Nonlinear |R| = [33m2.334229e+03[39m
      0 Linear |R| = [32m2.334229e+03[39m
      1 Linear |R| = [33m2.298335e+03[39m
      2 Linear |R| = [33m2.201327e+03[39m
      3 Linear |R| = [33m2.200994e+03[39m
      4 Linear |R| = [33m2.189476e+03[39m
      5 Linear |R| = [33m2.139584e+03[39m
      6 Linear |R| = [33m2.121123e+03[39m
      7 Linear |R| = [33m2.120714e+03[39m
      8 Linear |R| = [33m2.119360e+03[39m
      9 Linear |R| = [33m2.116554e+03[39m
     10 Linear |R| = [33m2.097426e+03[39m
     11 Linear |R| = [33m2.079613e+03[39m
     12 Linear |R| = [33m2.046567e+03[39m
     13 Linear |R| = [33m2.046473e+03[39m
     14 Linear |R| = [32m1.931863e+03[39m
     15 Linear |R| = [33m1.931841e+03[39m
     16 Linear |R| = [33m1.902912e+03[39m
     17 Linear |R| = [33m1.866563e+03[39m
     18 Linear |R| = [33m1.866057e+03[39m
     19 Linear |R| = [33m1.861540e+03[39m
     20 Linear |R| = [33m1.853214e+03[39m
  Linear solve did not converge due to DIVERGED_ITS iterations 20
 5 Nonlinear |R| = [33m2.334229e+03[39m
      0 Linear |R| = [32m2.334229e+03[39m
      1 Linear |R| = [33m2.334026e+03[39m
      2 Linear |R| = [33m2.287266e+03[39m
      3 Linear |R| = [33m2.254224e+03[39m
      4 Linear |R| = [33m2.247915e+03[39m
      5 Linear |R| = [33m2.234693e+03[39m
      6 Linear |R| = [33m2.232495e+03[39m
      7 Linear |R| = [33m2.205145e+03[39m
      8 Linear |R| = [33m2.195867e+03[39m
      9 Linear |R| = [33m2.195745e+03[39m
     10 Linear |R| = [33m2.184796e+03[39m
     11 Linear |R| = [33m2.093975e+03[39m
     12 Linear |R| = [33m2.081256e+03[39m
     13 Linear |R| = [33m2.063424e+03[39m
     14 Linear |R| = [33m1.995564e+03[39m
     15 Linear |R| = [33m1.981600e+03[39m
     16 Linear |R| = [33m1.958666e+03[39m
     17 Linear |R| = [33m1.958249e+03[39m
     18 Linear |R| = [33m1.932458e+03[39m
     19 Linear |R| = [33m1.898271e+03[39m
     20 Linear |R| = [33m1.898265e+03[39m
  Linear solve did not converge due to DIVERGED_ITS iterations 20
Nonlinear solve did not converge due to DIVERGED_LINE_SEARCH iterations 5
[31m Solve Did NOT Converge![39m
Aborting as solve did not converge

Solve failed, cutting timestep.

Time Step 2, time = 19, dt = 9
 0 Nonlinear |R| = [32m3.227676e+03[39m
      0 Linear |R| = [32m3.227676e+03[39m
      1 Linear |R| = [32m3.065347e+03[39m
      2 Linear |R| = [33m3.000420e+03[39m
      3 Linear |R| = [33m2.998139e+03[39m
      4 Linear |R| = [33m2.975085e+03[39m
      5 Linear |R| = [33m2.962963e+03[39m
      6 Linear |R| = [33m2.956664e+03[39m
      7 Linear |R| = [33m2.904354e+03[39m
      8 Linear |R| = [33m2.857824e+03[39m
      9 Linear |R| = [33m2.848188e+03[39m
     10 Linear |R| = [33m2.818370e+03[39m
     11 Linear |R| = [33m2.744122e+03[39m
     12 Linear |R| = [33m2.724264e+03[39m
     13 Linear |R| = [33m2.722983e+03[39m
     14 Linear |R| = [33m2.718489e+03[39m
     15 Linear |R| = [33m2.716550e+03[39m
     16 Linear |R| = [33m2.676528e+03[39m
     17 Linear |R| = [33m2.661513e+03[39m
     18 Linear |R| = [33m2.611619e+03[39m
     19 Linear |R| = [33m2.608230e+03[39m
     20 Linear |R| = [33m2.603248e+03[39m
  Linear solve did not converge due to DIVERGED_ITS iterations 20
 1 Nonlinear |R| = [32m2.870557e+03[39m
      0 Linear |R| = [32m2.870557e+03[39m
      1 Linear |R| = [33m2.869800e+03[39m
      2 Linear |R| = [33m2.765471e+03[39m
      3 Linear |R| = [33m2.765305e+03[39m
      4 Linear |R| = [33m2.747140e+03[39m
      5 Linear |R| = [33m2.657715e+03[39m
      6 Linear |R| = [33m2.643428e+03[39m
      7 Linear |R| = [33m2.612416e+03[39m
      8 Linear |R| = [33m2.606917e+03[39m
      9 Linear |R| = [33m2.604740e+03[39m
     10 Linear |R| = [33m2.567707e+03[39m
     11 Linear |R| = [33m2.544724e+03[39m
     12 Linear |R| = [33m2.508432e+03[39m
     13 Linear |R| = [33m2.492371e+03[39m
     14 Linear |R| = [33m2.490671e+03[39m
     15 Linear |R| = [33m2.460308e+03[39m
     16 Linear |R| = [33m2.347063e+03[39m
     17 Linear |R| = [33m2.284111e+03[39m
     18 Linear |R| = [33m2.282977e+03[39m
     19 Linear |R| = [33m2.276524e+03[39m
     20 Linear |R| = [33m2.274930e+03[39m
  Linear solve did not converge due to DIVERGED_ITS iterations 20
 2 Nonlinear |R| = [33m2.870557e+03[39m
      0 Linear |R| = [32m2.870557e+03[39m
      1 Linear |R| = [33m2.870455e+03[39m
      2 Linear |R| = [33m2.824093e+03[39m
      3 Linear |R| = [33m2.772250e+03[39m
      4 Linear |R| = [33m2.739964e+03[39m
      5 Linear |R| = [33m2.690440e+03[39m
      6 Linear |R| = [33m2.685491e+03[39m
      7 Linear |R| = [33m2.595298e+03[39m
      8 Linear |R| = [33m2.581635e+03[39m
      9 Linear |R| = [33m2.532192e+03[39m
     10 Linear |R| = [33m2.448174e+03[39m
     11 Linear |R| = [33m2.432707e+03[39m
     12 Linear |R| = [33m2.428650e+03[39m
     13 Linear |R| = [33m2.393677e+03[39m
     14 Linear |R| = [33m2.390852e+03[39m
     15 Linear |R| = [33m2.380706e+03[39m
     16 Linear |R| = [33m2.377710e+03[39m
     17 Linear |R| = [33m2.366710e+03[39m
     18 Linear |R| = [33m2.326551e+03[39m
     19 Linear |R| = [33m2.323874e+03[39m
     20 Linear |R| = [33m2.323517e+03[39m
  Linear solve did not converge due to DIVERGED_ITS iterations 20
 3 Nonlinear |R| = [33m2.870557e+03[39m
      0 Linear |R| = [32m2.870557e+03[39m
      1 Linear |R| = [33m2.848422e+03[39m
      2 Linear |R| = [32m2.631229e+03[39m
      3 Linear |R| = [33m2.624801e+03[39m
      4 Linear |R| = [33m2.558148e+03[39m
      5 Linear |R| = [33m2.554596e+03[39m
      6 Linear |R| = [33m2.479943e+03[39m
      7 Linear |R| = [33m2.479770e+03[39m
      8 Linear |R| = [33m2.479649e+03[39m
      9 Linear |R| = [33m2.468984e+03[39m
     10 Linear |R| = [33m2.440888e+03[39m
     11 Linear |R| = [33m2.431276e+03[39m
     12 Linear |R| = [33m2.423285e+03[39m
     13 Linear |R| = [33m2.375436e+03[39m
     14 Linear |R| = [33m2.368963e+03[39m
     15 Linear |R| = [33m2.368127e+03[39m
     16 Linear |R| = [33m2.366906e+03[39m
     17 Linear |R| = [32m2.247861e+03[39m
     18 Linear |R| = [33m2.247861e+03[39m
     19 Linear |R| = [33m2.244994e+03[39m
     20 Linear |R| = [33m2.133825e+03[39m
  Linear solve did not converge due to DIVERGED_ITS iterations 20
 4 Nonlinear |R| = [33m2.870557e+03[39m
      0 Linear |R| = [32m2.870557e+03[39m
      1 Linear |R| = [33m2.813015e+03[39m
      2 Linear |R| = [32m2.658170e+03[39m
      3 Linear |R| = [33m2.627082e+03[39m
      4 Linear |R| = [33m2.619398e+03[39m
      5 Linear |R| = [33m2.543760e+03[39m
      6 Linear |R| = [33m2.520861e+03[39m
      7 Linear |R| = [33m2.416090e+03[39m
      8 Linear |R| = [33m2.415653e+03[39m
      9 Linear |R| = [33m2.415619e+03[39m
     10 Linear |R| = [33m2.395391e+03[39m
     11 Linear |R| = [33m2.394305e+03[39m
     12 Linear |R| = [33m2.387784e+03[39m
     13 Linear |R| = [33m2.387633e+03[39m
     14 Linear |R| = [33m2.387364e+03[39m
     15 Linear |R| = [33m2.342274e+03[39m
     16 Linear |R| = [33m2.339049e+03[39m
     17 Linear |R| = [33m2.338994e+03[39m
     18 Linear |R| = [33m2.338588e+03[39m
     19 Linear |R| = [33m2.280710e+03[39m
     20 Linear |R| = [33m2.276743e+03[39m
  Linear solve did not converge due to DIVERGED_ITS iterations 20
Nonlinear solve did not converge due to DIVERGED_LINE_SEARCH iterations 4
[31m Solve Did NOT Converge![39m
Aborting as solve did not converge

Solve failed, cutting timestep.

Time Step 2, time = 18.1, dt = 8.1
 0 Nonlinear |R| = [32m3.227676e+03[39m
      0 Linear |R| = [32m3.227676e+03[39m
      1 Linear |R| = [32m2.829942e+03[39m
      2 Linear |R| = [33m2.771807e+03[39m
      3 Linear |R| = [33m2.771587e+03[39m
      4 Linear |R| = [33m2.768194e+03[39m
      5 Linear |R| = [33m2.742818e+03[39m
      6 Linear |R| = [33m2.742453e+03[39m
      7 Linear |R| = [33m2.742396e+03[39m
      8 Linear |R| = [33m2.675272e+03[39m
      9 Linear |R| = [33m2.675161e+03[39m
     10 Linear |R| = [33m2.621024e+03[39m
     11 Linear |R| = [33m2.534610e+03[39m
     12 Linear |R| = [33m2.528990e+03[39m
     13 Linear |R| = [33m2.511305e+03[39m
     14 Linear |R| = [33m2.501961e+03[39m
     15 Linear |R| = [33m2.501955e+03[39m
     16 Linear |R| = [33m2.462754e+03[39m
     17 Linear |R| = [33m2.458544e+03[39m
     18 Linear |R| = [33m2.353100e+03[39m
     19 Linear |R| = [33m2.317720e+03[39m
     20 Linear |R| = [33m2.313401e+03[39m
  Linear solve did not converge due to DIVERGED_ITS iterations 20
 1 Nonlinear |R| = [32m2.243634e+03[39m
      0 Linear |R| = [32m2.243634e+03[39m
      1 Linear |R| = [33m2.221979e+03[39m
      2 Linear |R| = [33m2.221976e+03[39m
      3 Linear |R| = [33m2.202572e+03[39m
      4 Linear |R| = [33m2.187802e+03[39m
      5 Linear |R| = [33m2.175554e+03[39m
      6 Linear |R| = [33m2.173832e+03[39m
      7 Linear |R| = [33m2.136394e+03[39m
      8 Linear |R| = [33m2.129483e+03[39m
      9 Linear |R| = [33m2.122625e+03[39m
     10 Linear |R| = [33m2.122613e+03[39m
     11 Linear |R| = [33m2.122574e+03[39m
     12 Linear |R| = [33m2.120499e+03[39m
     13 Linear |R| = [33m2.118763e+03[39m
     14 Linear |R| = [33m2.117061e+03[39m
     15 Linear |R| = [33m2.110154e+03[39m
     16 Linear |R| = [33m2.108079e+03[39m
     17 Linear |R| = [33m2.106300e+03[39m
     18 Linear |R| = [33m2.099248e+03[39m
     19 Linear |R| = [33m2.091822e+03[39m
     20 Linear |R| = [33m2.091783e+03[39m
  Linear solve did not converge due to DIVERGED_ITS iterations 20
 2 Nonlinear |R| = [33m2.243628e+03[39m
      0 Linear |R| = [32m2.243628e+03[39m
      1 Linear |R| = [33m2.242912e+03[39m
      2 Linear |R| = [33m2.237577e+03[39m
      3 Linear |R| = [33m2.237490e+03[39m
      4 Linear |R| = [33m2.225608e+03[39m
      5 Linear |R| = [33m2.217929e+03[39m
      6 Linear |R| = [33m2.214633e+03[39m
      7 Linear |R| = [33m2.212964e+03[39m
      8 Linear |R| = [33m2.200429e+03[39m
      9 Linear |R| = [33m2.190021e+03[39m
     10 Linear |R| = [33m2.189043e+03[39m
     11 Linear |R| = [33m2.184987e+03[39m
     12 Linear |R| = [33m2.182287e+03[39m
     13 Linear |R| = [33m2.178404e+03[39m
     14 Linear |R| = [33m2.139446e+03[39m
     15 Linear |R| = [33m2.118470e+03[39m
     16 Linear |R| = [33m2.114812e+03[39m
     17 Linear |R| = [33m2.083300e+03[39m
     18 Linear |R| = [33m2.079299e+03[39m
     19 Linear |R| = [33m2.070058e+03[39m
     20 Linear |R| = [33m2.020070e+03[39m
  Linear solve did not converge due to DIVERGED_ITS iterations 20
 3 Nonlinear |R| = [33m2.243628e+03[39m
      0 Linear |R| = [32m2.243628e+03[39m
      1 Linear |R| = [33m2.243522e+03[39m
      2 Linear |R| = [33m2.242085e+03[39m
      3 Linear |R| = [33m2.241904e+03[39m
      4 Linear |R| = [33m2.241746e+03[39m
      5 Linear |R| = [33m2.233690e+03[39m
      6 Linear |R| = [33m2.174532e+03[39m
      7 Linear |R| = [33m2.169972e+03[39m
      8 Linear |R| = [33m2.168735e+03[39m
      9 Linear |R| = [33m2.168265e+03[39m
     10 Linear |R| = [33m2.120732e+03[39m
     11 Linear |R| = [33m2.115058e+03[39m
     12 Linear |R| = [33m2.077361e+03[39m
     13 Linear |R| = [33m2.062662e+03[39m
     14 Linear |R| = [33m2.061521e+03[39m
     15 Linear |R| = [33m2.061241e+03[39m
     16 Linear |R| = [33m2.055663e+03[39m
     17 Linear |R| = [33m2.055012e+03[39m
     18 Linear |R| = [33m2.012018e+03[39m
     19 Linear |R| = [33m2.006385e+03[39m
     20 Linear |R| = [33m2.006063e+03[39m
  Linear solve did not converge due to DIVERGED_ITS iterations 20
 4 Nonlinear |R| = [33m2.243628e+03[39m
      0 Linear |R| = [32m2.243628e+03[39m
      1 Linear |R| = [33m2.243041e+03[39m
      2 Linear |R| = [33m2.242968e+03[39m
      3 Linear |R| = [33m2.235789e+03[39m
      4 Linear |R| = [33m2.231733e+03[39m
      5 Linear |R| = [33m2.231285e+03[39m
      6 Linear |R| = [33m2.222201e+03[39m
      7 Linear |R| = [33m2.221697e+03[39m
      8 Linear |R| = [33m2.221573e+03[39m
      9 Linear |R| = [33m2.136527e+03[39m
     10 Linear |R| = [33m2.134531e+03[39m
     11 Linear |R| = [33m2.128601e+03[39m
     12 Linear |R| = [33m2.117452e+03[39m
     13 Linear |R| = [33m2.115825e+03[39m
     14 Linear |R| = [33m2.100025e+03[39m
     15 Linear |R| = [33m2.095499e+03[39m
     16 Linear |R| = [33m2.091198e+03[39m
     17 Linear |R| = [33m2.089176e+03[39m
     18 Linear |R| = [33m2.003210e+03[39m
     19 Linear |R| = [33m2.001383e+03[39m
     20 Linear |R| = [33m1.998982e+03[39m
  Linear solve did not converge due to DIVERGED_ITS iterations 20
 5 Nonlinear |R| = [33m2.243628e+03[39m
      0 Linear |R| = [32m2.243628e+03[39m
      1 Linear |R| = [33m2.240997e+03[39m
      2 Linear |R| = [33m2.197720e+03[39m
      3 Linear |R| = [33m2.196739e+03[39m
      4 Linear |R| = [33m2.196405e+03[39m
      5 Linear |R| = [33m2.196286e+03[39m
      6 Linear |R| = [33m2.182467e+03[39m
      7 Linear |R| = [33m2.181136e+03[39m
      8 Linear |R| = [33m2.179345e+03[39m
      9 Linear |R| = [33m2.176343e+03[39m
     10 Linear |R| = [33m2.146259e+03[39m
     11 Linear |R| = [33m2.145151e+03[39m
     12 Linear |R| = [33m2.118066e+03[39m
     13 Linear |R| = [33m2.116927e+03[39m
     14 Linear |R| = [33m2.115220e+03[39m
     15 Linear |R| = [33m2.089997e+03[39m
     16 Linear |R| = [33m2.087481e+03[39m
     17 Linear |R| = [33m2.057616e+03[39m
     18 Linear |R| = [33m2.036142e+03[39m
     19 Linear |R| = [33m2.036062e+03[39m
     20 Linear |R| = [33m2.031361e+03[39m
  Linear solve did not converge due to DIVERGED_ITS iterations 20
 6 Nonlinear |R| = [33m2.243628e+03[39m
      0 Linear |R| = [32m2.243628e+03[39m
      1 Linear |R| = [33m2.236750e+03[39m
      2 Linear |R| = [33m2.210992e+03[39m
      3 Linear |R| = [33m2.209391e+03[39m
      4 Linear |R| = [33m2.209338e+03[39m
      5 Linear |R| = [33m2.139564e+03[39m
      6 Linear |R| = [33m2.138971e+03[39m
      7 Linear |R| = [33m2.137832e+03[39m
      8 Linear |R| = [33m2.134836e+03[39m
      9 Linear |R| = [33m2.123600e+03[39m
     10 Linear |R| = [33m2.106288e+03[39m
     11 Linear |R| = [33m2.101913e+03[39m
     12 Linear |R| = [33m2.070977e+03[39m
     13 Linear |R| = [33m2.070747e+03[39m
     14 Linear |R| = [33m2.070144e+03[39m
     15 Linear |R| = [33m2.059612e+03[39m
     16 Linear |R| = [33m2.047262e+03[39m
     17 Linear |R| = [33m2.043345e+03[39m
     18 Linear |R| = [33m2.037073e+03[39m
     19 Linear |R| = [33m2.031994e+03[39m
     20 Linear |R| = [33m2.031384e+03[39m
  Linear solve did not converge due to DIVERGED_ITS iterations 20
 7 Nonlinear |R| = [33m2.243628e+03[39m
      0 Linear |R| = [32m2.243628e+03[39m
      1 Linear |R| = [33m2.211254e+03[39m
      2 Linear |R| = [33m2.194602e+03[39m
      3 Linear |R| = [33m2.154707e+03[39m
      4 Linear |R| = [33m2.129132e+03[39m
      5 Linear |R| = [33m2.125511e+03[39m
      6 Linear |R| = [33m2.113474e+03[39m
      7 Linear |R| = [33m2.101691e+03[39m
      8 Linear |R| = [33m2.080436e+03[39m
      9 Linear |R| = [33m2.078719e+03[39m
     10 Linear |R| = [33m2.031491e+03[39m
     11 Linear |R| = [33m2.026296e+03[39m
     12 Linear |R| = [33m2.026167e+03[39m
     13 Linear |R| = [33m2.025248e+03[39m
     14 Linear |R| = [33m1.978545e+03[39m
     15 Linear |R| = [33m1.974162e+03[39m
     16 Linear |R| = [33m1.970556e+03[39m
     17 Linear |R| = [33m1.953801e+03[39m
     18 Linear |R| = [33m1.951836e+03[39m
     19 Linear |R| = [33m1.914786e+03[39m
     20 Linear |R| = [33m1.914268e+03[39m
  Linear solve did not converge due to DIVERGED_ITS iterations 20
 8 Nonlinear |R| = [33m2.243628e+03[39m
      0 Linear |R| = [32m2.243628e+03[39m
      1 Linear |R| = [33m2.211170e+03[39m
      2 Linear |R| = [33m2.167350e+03[39m
      3 Linear |R| = [33m2.148201e+03[39m
      4 Linear |R| = [33m2.130916e+03[39m
      5 Linear |R| = [33m2.101049e+03[39m
      6 Linear |R| = [33m2.088367e+03[39m
      7 Linear |R| = [33m2.065349e+03[39m
      8 Linear |R| = [33m2.054629e+03[39m
      9 Linear |R| = [33m2.047162e+03[39m
     10 Linear |R| = [33m2.043174e+03[39m
     11 Linear |R| = [33m2.035735e+03[39m
     12 Linear |R| = [33m2.035400e+03[39m
     13 Linear |R| = [33m2.033777e+03[39m
     14 Linear |R| = [33m2.031008e+03[39m
     15 Linear |R| = [33m1.990172e+03[39m
     16 Linear |R| = [33m1.990085e+03[39m
     17 Linear |R| = [33m1.986641e+03[39m
     18 Linear |R| = [33m1.962520e+03[39m
     19 Linear |R| = [33m1.962336e+03[39m
     20 Linear |R| = [33m1.952942e+03[39m
  Linear solve did not converge due to DIVERGED_ITS iterations 20
 9 Nonlinear |R| = [33m2.243628e+03[39m
      0 Linear |R| = [32m2.243628e+03[39m
      1 Linear |R| = [33m2.208154e+03[39m
      2 Linear |R| = [33m2.181504e+03[39m
      3 Linear |R| = [33m2.171569e+03[39m
      4 Linear |R| = [33m2.124115e+03[39m
      5 Linear |R| = [33m2.115057e+03[39m
      6 Linear |R| = [33m2.114746e+03[39m
      7 Linear |R| = [33m2.097112e+03[39m
      8 Linear |R| = [33m2.096397e+03[39m
      9 Linear |R| = [33m2.093452e+03[39m
     10 Linear |R| = [33m2.092861e+03[39m
     11 Linear |R| = [33m2.084721e+03[39m
     12 Linear |R| = [33m2.069338e+03[39m
     13 Linear |R| = [33m2.057330e+03[39m
     14 Linear |R| = [33m2.055049e+03[39m
     15 Linear |R| = [33m1.990731e+03[39m
     16 Linear |R| = [33m1.987052e+03[39m
     17 Linear |R| = [33m1.986796e+03[39m
     18 Linear |R| = [33m1.984597e+03[39m
     19 Linear |R| = [33m1.980952e+03[39m
     20 Linear |R| = [33m1.935761e+03[39m
  Linear solve did not converge due to DIVERGED_ITS iterations 20
Nonlinear solve did not converge due to DIVERGED_LINE_SEARCH iterations 9
[31m Solve Did NOT Converge![39m
Aborting as solve did not converge

Solve failed, cutting timestep.

Time Step 2, time = 17.29, dt = 7.29
 0 Nonlinear |R| = [32m3.227676e+03[39m
      0 Linear |R| = [32m3.227676e+03[39m
      1 Linear |R| = [32m3.008145e+03[39m
      2 Linear |R| = [33m3.002359e+03[39m
      3 Linear |R| = [33m2.977370e+03[39m
      4 Linear |R| = [33m2.976896e+03[39m
      5 Linear |R| = [33m2.936774e+03[39m
      6 Linear |R| = [33m2.901478e+03[39m
      7 Linear |R| = [33m2.895262e+03[39m
      8 Linear |R| = [32m2.734301e+03[39m
      9 Linear |R| = [33m2.734278e+03[39m
     10 Linear |R| = [33m2.725799e+03[39m
     11 Linear |R| = [33m2.703310e+03[39m
     12 Linear |R| = [33m2.663958e+03[39m
     13 Linear |R| = [33m2.663195e+03[39m
     14 Linear |R| = [33m2.663175e+03[39m
     15 Linear |R| = [33m2.663149e+03[39m
     16 Linear |R| = [33m2.649721e+03[39m
     17 Linear |R| = [33m2.621688e+03[39m
     18 Linear |R| = [33m2.612703e+03[39m
     19 Linear |R| = [33m2.612606e+03[39m
     20 Linear |R| = [33m2.605376e+03[39m
  Linear solve did not converge due to DIVERGED_ITS iterations 20
 1 Nonlinear |R| = [32m2.916782e+03[39m
      0 Linear |R| = [32m2.916782e+03[39m
      1 Linear |R| = [33m2.916201e+03[39m
      2 Linear |R| = [33m2.874269e+03[39m
      3 Linear |R| = [33m2.860144e+03[39m
      4 Linear |R| = [33m2.753363e+03[39m
      5 Linear |R| = [33m2.748194e+03[39m
      6 Linear |R| = [33m2.736378e+03[39m
      7 Linear |R| = [33m2.727866e+03[39m
      8 Linear |R| = [33m2.711881e+03[39m
      9 Linear |R| = [33m2.708512e+03[39m
     10 Linear |R| = [33m2.691704e+03[39m
     11 Linear |R| = [32m2.548452e+03[39m
     12 Linear |R| = [33m2.544678e+03[39m
     13 Linear |R| = [33m2.523426e+03[39m
     14 Linear |R| = [33m2.498621e+03[39m
     15 Linear |R| = [33m2.492605e+03[39m
     16 Linear |R| = [33m2.444194e+03[39m
     17 Linear |R| = [33m2.442304e+03[39m
     18 Linear |R| = [33m2.427307e+03[39m
     19 Linear |R| = [33m2.420952e+03[39m
     20 Linear |R| = [33m2.398663e+03[39m
  Linear solve did not converge due to DIVERGED_ITS iterations 20
 2 Nonlinear |R| = [33m2.916782e+03[39m
      0 Linear |R| = [32m2.916782e+03[39m
      1 Linear |R| = [33m2.887735e+03[39m
      2 Linear |R| = [33m2.875991e+03[39m
      3 Linear |R| = [33m2.861522e+03[39m
      4 Linear |R| = [33m2.858504e+03[39m
      5 Linear |R| = [33m2.848527e+03[39m
      6 Linear |R| = [33m2.837065e+03[39m
      7 Linear |R| = [33m2.836038e+03[39m
      8 Linear |R| = [33m2.832573e+03[39m
      9 Linear |R| = [33m2.825930e+03[39m
     10 Linear |R| = [33m2.824754e+03[39m
     11 Linear |R| = [33m2.756289e+03[39m
     12 Linear |R| = [33m2.751090e+03[39m
     13 Linear |R| = [33m2.750790e+03[39m
     14 Linear |R| = [33m2.731079e+03[39m
     15 Linear |R| = [33m2.713000e+03[39m
     16 Linear |R| = [33m2.624816e+03[39m
     17 Linear |R| = [33m2.615030e+03[39m
     18 Linear |R| = [33m2.614982e+03[39m
     19 Linear |R| = [33m2.559029e+03[39m
     20 Linear |R| = [33m2.558681e+03[39m
  Linear solve did not converge due to DIVERGED_ITS iterations 20
 3 Nonlinear |R| = [33m2.916782e+03[39m
      0 Linear |R| = [32m2.916782e+03[39m
      1 Linear |R| = [33m2.856754e+03[39m
      2 Linear |R| = [33m2.854185e+03[39m
      3 Linear |R| = [33m2.853279e+03[39m
      4 Linear |R| = [33m2.847240e+03[39m
      5 Linear |R| = [33m2.836402e+03[39m
      6 Linear |R| = [33m2.834464e+03[39m
      7 Linear |R| = [33m2.749152e+03[39m
      8 Linear |R| = [33m2.727341e+03[39m
      9 Linear |R| = [33m2.726665e+03[39m
     10 Linear |R| = [33m2.725889e+03[39m
     11 Linear |R| = [33m2.698247e+03[39m
     12 Linear |R| = [33m2.625592e+03[39m
     13 Linear |R| = [33m2.616348e+03[39m
     14 Linear |R| = [33m2.511242e+03[39m
     15 Linear |R| = [33m2.501774e+03[39m
     16 Linear |R| = [33m2.498307e+03[39m
     17 Linear |R| = [33m2.493015e+03[39m
     18 Linear |R| = [33m2.472369e+03[39m
     19 Linear |R| = [33m2.470606e+03[39m
     20 Linear |R| = [33m2.461054e+03[39m
  Linear solve did not converge due to DIVERGED_ITS iterations 20
Nonlinear solve did not converge due to DIVERGED_LINE_SEARCH iterations 3
[31m Solve Did NOT Converge![39m
Aborting as solve did not converge

Solve failed, cutting timestep.

Time Step 2, time = 16.561, dt = 6.561
 0 Nonlinear |R| = [32m3.227676e+03[39m
      0 Linear |R| = [32m3.227676e+03[39m
      1 Linear |R| = [32m2.981929e+03[39m
      2 Linear |R| = [33m2.981064e+03[39m
      3 Linear |R| = [33m2.923061e+03[39m
      4 Linear |R| = [33m2.891855e+03[39m
      5 Linear |R| = [33m2.884452e+03[39m
      6 Linear |R| = [33m2.874325e+03[39m
      7 Linear |R| = [33m2.871678e+03[39m
      8 Linear |R| = [33m2.830958e+03[39m
      9 Linear |R| = [33m2.830957e+03[39m
     10 Linear |R| = [33m2.814648e+03[39m
     11 Linear |R| = [33m2.801431e+03[39m
     12 Linear |R| = [33m2.784016e+03[39m
     13 Linear |R| = [33m2.781879e+03[39m
     14 Linear |R| = [33m2.720320e+03[39m
     15 Linear |R| = [33m2.705771e+03[39m
     16 Linear |R| = [33m2.702485e+03[39m
     17 Linear |R| = [33m2.697190e+03[39m
     18 Linear |R| = [33m2.606173e+03[39m
     19 Linear |R| = [33m2.583758e+03[39m
     20 Linear |R| = [32m2.426866e+03[39m
  Linear solve did not converge due to DIVERGED_ITS iterations 20
 1 Nonlinear |R| = [32m2.628815e+03[39m
      0 Linear |R| = [32m2.628815e+03[39m
      1 Linear |R| = [33m2.624722e+03[39m
      2 Linear |R| = [33m2.613979e+03[39m
      3 Linear |R| = [33m2.594508e+03[39m
      4 Linear |R| = [33m2.587566e+03[39m
      5 Linear |R| = [33m2.571875e+03[39m
      6 Linear |R| = [33m2.568865e+03[39m
      7 Linear |R| = [33m2.551726e+03[39m
      8 Linear |R| = [33m2.532580e+03[39m
      9 Linear |R| = [33m2.515052e+03[39m
     10 Linear |R| = [33m2.454578e+03[39m
     11 Linear |R| = [33m2.444125e+03[39m
     12 Linear |R| = [33m2.444023e+03[39m
     13 Linear |R| = [33m2.440374e+03[39m
     14 Linear |R| = [33m2.353601e+03[39m
     15 Linear |R| = [33m2.327868e+03[39m
     16 Linear |R| = [33m2.327838e+03[39m
     17 Linear |R| = [33m2.327017e+03[39m
     18 Linear |R| = [33m2.323614e+03[39m
     19 Linear |R| = [33m2.321435e+03[39m
     20 Linear |R| = [33m2.316244e+03[39m
  Linear solve did not converge due to DIVERGED_ITS iterations 20
 2 Nonlinear |R| = [33m2.628815e+03[39m
      0 Linear |R| = [32m2.628815e+03[39m
      1 Linear |R| = [33m2.625168e+03[39m
      2 Linear |R| = [33m2.586710e+03[39m
      3 Linear |R| = [33m2.577350e+03[39m
      4 Linear |R| = [33m2.558184e+03[39m
      5 Linear |R| = [33m2.502848e+03[39m
      6 Linear |R| = [33m2.493731e+03[39m
      7 Linear |R| = [33m2.487029e+03[39m
      8 Linear |R| = [33m2.486043e+03[39m
      9 Linear |R| = [33m2.481964e+03[39m
     10 Linear |R| = [33m2.446393e+03[39m
     11 Linear |R| = [33m2.446260e+03[39m
     12 Linear |R| = [33m2.441767e+03[39m
     13 Linear |R| = [33m2.441766e+03[39m
     14 Linear |R| = [33m2.438722e+03[39m
     15 Linear |R| = [33m2.427882e+03[39m
     16 Linear |R| = [33m2.427828e+03[39m
     17 Linear |R| = [33m2.401410e+03[39m
     18 Linear |R| = [33m2.400441e+03[39m
     19 Linear |R| = [33m2.357797e+03[39m
     20 Linear |R| = [33m2.330604e+03[39m
  Linear solve did not converge due to DIVERGED_ITS iterations 20
 3 Nonlinear |R| = [33m2.628815e+03[39m
      0 Linear |R| = [32m2.628815e+03[39m
      1 Linear |R| = [33m2.628475e+03[39m
      2 Linear |R| = [33m2.610723e+03[39m
      3 Linear |R| = [33m2.596654e+03[39m
      4 Linear |R| = [32m2.450200e+03[39m
      5 Linear |R| = [33m2.411534e+03[39m
      6 Linear |R| = [33m2.407618e+03[39m
      7 Linear |R| = [33m2.382328e+03[39m
      8 Linear |R| = [33m2.310771e+03[39m
      9 Linear |R| = [33m2.304595e+03[39m
     10 Linear |R| = [33m2.304526e+03[39m
     11 Linear |R| = [33m2.295132e+03[39m
     12 Linear |R| = [33m2.295132e+03[39m
     13 Linear |R| = [33m2.282985e+03[39m
     14 Linear |R| = [33m2.269576e+03[39m
     15 Linear |R| = [33m2.202646e+03[39m
     16 Linear |R| = [33m2.197222e+03[39m
     17 Linear |R| = [33m2.187477e+03[39m
     18 Linear |R| = [33m2.114163e+03[39m
     19 Linear |R| = [33m2.086412e+03[39m
     20 Linear |R| = [32m1.955633e+03[39m
  Linear solve did not converge due to DIVERGED_ITS iterations 20
Nonlinear solve did not converge due to DIVERGED_LINE_SEARCH iterations 3
[31m Solve Did NOT Converge![39m
Aborting as solve did not converge

Solve failed, cutting timestep.

Time Step 2, time = 15.9049, dt = 5.9049
 0 Nonlinear |R| = [32m3.227676e+03[39m
      0 Linear |R| = [32m3.227676e+03[39m
      1 Linear |R| = [32m2.915524e+03[39m
      2 Linear |R| = [33m2.908603e+03[39m
      3 Linear |R| = [33m2.851447e+03[39m
      4 Linear |R| = [33m2.814610e+03[39m
      5 Linear |R| = [33m2.785376e+03[39m
      6 Linear |R| = [33m2.758180e+03[39m
      7 Linear |R| = [32m2.602227e+03[39m
      8 Linear |R| = [33m2.597521e+03[39m
      9 Linear |R| = [33m2.596080e+03[39m
     10 Linear |R| = [33m2.593342e+03[39m
     11 Linear |R| = [33m2.593342e+03[39m
     12 Linear |R| = [33m2.575520e+03[39m
     13 Linear |R| = [33m2.566417e+03[39m
     14 Linear |R| = [33m2.565532e+03[39m
     15 Linear |R| = [32m2.338078e+03[39m
     16 Linear |R| = [33m2.291861e+03[39m
     17 Linear |R| = [33m2.256288e+03[39m
     18 Linear |R| = [33m2.243110e+03[39m
     19 Linear |R| = [33m2.209282e+03[39m
     20 Linear |R| = [33m2.177920e+03[39m
  Linear solve did not converge due to DIVERGED_ITS iterations 20
 1 Nonlinear |R| = [32m2.153214e+03[39m
      0 Linear |R| = [32m2.153214e+03[39m
      1 Linear |R| = [33m2.152208e+03[39m
      2 Linear |R| = [33m2.130087e+03[39m
      3 Linear |R| = [33m2.128703e+03[39m
      4 Linear |R| = [33m2.119930e+03[39m
      5 Linear |R| = [33m2.095691e+03[39m
      6 Linear |R| = [33m2.095690e+03[39m
      7 Linear |R| = [33m2.084804e+03[39m
      8 Linear |R| = [33m2.044229e+03[39m
      9 Linear |R| = [33m2.012539e+03[39m
     10 Linear |R| = [33m2.005354e+03[39m
     11 Linear |R| = [33m1.993179e+03[39m
     12 Linear |R| = [33m1.951480e+03[39m
     13 Linear |R| = [33m1.906336e+03[39m
     14 Linear |R| = [33m1.882281e+03[39m
     15 Linear |R| = [33m1.841375e+03[39m
     16 Linear |R| = [33m1.838971e+03[39m
     17 Linear |R| = [33m1.838931e+03[39m
     18 Linear |R| = [33m1.834596e+03[39m
     19 Linear |R| = [33m1.828898e+03[39m
     20 Linear |R| = [33m1.806578e+03[39m
  Linear solve did not converge due to DIVERGED_ITS iterations 20
 2 Nonlinear |R| = [33m2.153214e+03[39m
      0 Linear |R| = [32m2.153214e+03[39m
      1 Linear |R| = [33m2.149931e+03[39m
      2 Linear |R| = [33m2.134446e+03[39m
      3 Linear |R| = [33m2.128287e+03[39m
      4 Linear |R| = [33m2.118258e+03[39m
      5 Linear |R| = [33m2.092432e+03[39m
      6 Linear |R| = [33m2.091052e+03[39m
      7 Linear |R| = [33m2.087240e+03[39m
      8 Linear |R| = [33m2.025434e+03[39m
      9 Linear |R| = [33m1.998510e+03[39m
     10 Linear |R| = [33m1.989865e+03[39m
     11 Linear |R| = [33m1.986288e+03[39m
     12 Linear |R| = [33m1.924899e+03[39m
     13 Linear |R| = [33m1.924193e+03[39m
     14 Linear |R| = [33m1.913634e+03[39m
     15 Linear |R| = [33m1.913435e+03[39m
     16 Linear |R| = [33m1.913034e+03[39m
     17 Linear |R| = [33m1.906102e+03[39m
     18 Linear |R| = [33m1.904933e+03[39m
     19 Linear |R| = [33m1.900309e+03[39m
     20 Linear |R| = [33m1.899462e+03[39m
  Linear solve did not converge due to DIVERGED_ITS iterations 20
 3 Nonlinear |R| = [33m2.153214e+03[39m
      0 Linear |R| = [32m2.153214e+03[39m
      1 Linear |R| = [33m2.146445e+03[39m
      2 Linear |R| = [33m2.044099e+03[39m
      3 Linear |R| = [33m2.018459e+03[39m
      4 Linear |R| = [33m2.009808e+03[39m
      5 Linear |R| = [33m1.988352e+03[39m
      6 Linear |R| = [33m1.987025e+03[39m
      7 Linear |R| = [33m1.962296e+03[39m
      8 Linear |R| = [33m1.949925e+03[39m
      9 Linear |R| = [33m1.947250e+03[39m
     10 Linear |R| = [33m1.920416e+03[39m
     11 Linear |R| = [33m1.915240e+03[39m
     12 Linear |R| = [33m1.892391e+03[39m
     13 Linear |R| = [33m1.860968e+03[39m
     14 Linear |R| = [33m1.860352e+03[39m
     15 Linear |R| = [33m1.850216e+03[39m
     16 Linear |R| = [33m1.833336e+03[39m
     17 Linear |R| = [33m1.832763e+03[39m
     18 Linear |R| = [33m1.831269e+03[39m
     19 Linear |R| = [33m1.819523e+03[39m
     20 Linear |R| = [33m1.793106e+03[39m
  Linear solve did not converge due to DIVERGED_ITS iterations 20
 4 Nonlinear |R| = [33m2.153214e+03[39m
      0 Linear |R| = [32m2.153214e+03[39m
      1 Linear |R| = [33m2.146324e+03[39m
      2 Linear |R| = [33m2.090665e+03[39m
      3 Linear |R| = [33m2.087372e+03[39m
      4 Linear |R| = [33m2.087328e+03[39m
      5 Linear |R| = [33m2.081461e+03[39m
      6 Linear |R| = [33m2.079041e+03[39m
      7 Linear |R| = [33m2.030475e+03[39m
      8 Linear |R| = [33m2.028670e+03[39m
      9 Linear |R| = [33m2.015174e+03[39m
     10 Linear |R| = [33m1.950674e+03[39m
     11 Linear |R| = [33m1.941449e+03[39m
     12 Linear |R| = [33m1.903242e+03[39m
     13 Linear |R| = [33m1.880257e+03[39m
     14 Linear |R| = [33m1.815690e+03[39m
     15 Linear |R| = [33m1.812563e+03[39m
     16 Linear |R| = [33m1.810512e+03[39m
     17 Linear |R| = [33m1.808814e+03[39m
     18 Linear |R| = [33m1.790541e+03[39m
     19 Linear |R| = [33m1.790364e+03[39m
     20 Linear |R| = [33m1.789037e+03[39m
  Linear solve did not converge due to DIVERGED_ITS iterations 20
 5 Nonlinear |R| = [33m2.153214e+03[39m
      0 Linear |R| = [32m2.153214e+03[39m
      1 Linear |R| = [33m2.149828e+03[39m
      2 Linear |R| = [33m2.055319e+03[39m
      3 Linear |R| = [33m2.052377e+03[39m
      4 Linear |R| = [33m2.048884e+03[39m
      5 Linear |R| = [33m2.047574e+03[39m
      6 Linear |R| = [33m2.002498e+03[39m
      7 Linear |R| = [33m1.996281e+03[39m
      8 Linear |R| = [33m1.995109e+03[39m
      9 Linear |R| = [33m1.902548e+03[39m
     10 Linear |R| = [33m1.895675e+03[39m
     11 Linear |R| = [33m1.851727e+03[39m
     12 Linear |R| = [33m1.848349e+03[39m
     13 Linear |R| = [33m1.847189e+03[39m
     14 Linear |R| = [33m1.846896e+03[39m
     15 Linear |R| = [33m1.831607e+03[39m
     16 Linear |R| = [33m1.827844e+03[39m
     17 Linear |R| = [33m1.816986e+03[39m
     18 Linear |R| = [33m1.811652e+03[39m
     19 Linear |R| = [33m1.809851e+03[39m
     20 Linear |R| = [33m1.809795e+03[39m
  Linear solve did not converge due to DIVERGED_ITS iterations 20
 6 Nonlinear |R| = [33m2.153214e+03[39m
      0 Linear |R| = [32m2.153214e+03[39m
      1 Linear |R| = [33m2.148030e+03[39m
      2 Linear |R| = [32m1.973892e+03[39m
      3 Linear |R| = [33m1.931638e+03[39m
      4 Linear |R| = [33m1.920306e+03[39m
      5 Linear |R| = [33m1.832524e+03[39m
      6 Linear |R| = [33m1.826170e+03[39m
      7 Linear |R| = [33m1.802161e+03[39m
      8 Linear |R| = [33m1.796849e+03[39m
      9 Linear |R| = [33m1.796814e+03[39m
     10 Linear |R| = [33m1.796607e+03[39m
     11 Linear |R| = [33m1.781019e+03[39m
     12 Linear |R| = [33m1.780908e+03[39m
     13 Linear |R| = [33m1.780710e+03[39m
     14 Linear |R| = [33m1.778083e+03[39m
     15 Linear |R| = [33m1.766270e+03[39m
     16 Linear |R| = [33m1.764023e+03[39m
     17 Linear |R| = [33m1.755885e+03[39m
     18 Linear |R| = [33m1.750522e+03[39m
     19 Linear |R| = [33m1.748591e+03[39m
     20 Linear |R| = [33m1.748565e+03[39m
  Linear solve did not converge due to DIVERGED_ITS iterations 20
Nonlinear solve did not converge due to DIVERGED_LINE_SEARCH iterations 6
[31m Solve Did NOT Converge![39m
Aborting as solve did not converge

Solve failed, cutting timestep.

Time Step 2, time = 15.3144, dt = 5.31441
 0 Nonlinear |R| = [32m3.227676e+03[39m
      0 Linear |R| = [32m3.227676e+03[39m
      1 Linear |R| = [32m2.844823e+03[39m
      2 Linear |R| = [33m2.771082e+03[39m
      3 Linear |R| = [33m2.638231e+03[39m
      4 Linear |R| = [33m2.614465e+03[39m
      5 Linear |R| = [33m2.600326e+03[39m
      6 Linear |R| = [33m2.547871e+03[39m
      7 Linear |R| = [33m2.534887e+03[39m
      8 Linear |R| = [33m2.534409e+03[39m
      9 Linear |R| = [33m2.534062e+03[39m
     10 Linear |R| = [33m2.458191e+03[39m
     11 Linear |R| = [33m2.449814e+03[39m
     12 Linear |R| = [33m2.417132e+03[39m
     13 Linear |R| = [33m2.409798e+03[39m
     14 Linear |R| = [33m2.407200e+03[39m
     15 Linear |R| = [33m2.406835e+03[39m
     16 Linear |R| = [33m2.405359e+03[39m
     17 Linear |R| = [33m2.370264e+03[39m
     18 Linear |R| = [33m2.347007e+03[39m
     19 Linear |R| = [32m2.110598e+03[39m
     20 Linear |R| = [33m2.109043e+03[39m
  Linear solve did not converge due to DIVERGED_ITS iterations 20
 1 Nonlinear |R| = [32m2.561053e+03[39m
      0 Linear |R| = [32m2.561053e+03[39m
      1 Linear |R| = [33m2.560190e+03[39m
      2 Linear |R| = [33m2.534676e+03[39m
      3 Linear |R| = [33m2.519057e+03[39m
      4 Linear |R| = [33m2.515616e+03[39m
      5 Linear |R| = [33m2.514826e+03[39m
      6 Linear |R| = [33m2.451333e+03[39m
      7 Linear |R| = [33m2.447376e+03[39m
      8 Linear |R| = [33m2.442812e+03[39m
      9 Linear |R| = [33m2.442812e+03[39m
     10 Linear |R| = [33m2.400790e+03[39m
     11 Linear |R| = [33m2.398201e+03[39m
     12 Linear |R| = [33m2.378015e+03[39m
     13 Linear |R| = [33m2.331493e+03[39m
     14 Linear |R| = [33m2.326167e+03[39m
     15 Linear |R| = [33m2.297909e+03[39m
     16 Linear |R| = [33m2.192630e+03[39m
     17 Linear |R| = [33m2.192603e+03[39m
     18 Linear |R| = [33m2.190881e+03[39m
     19 Linear |R| = [33m2.128948e+03[39m
     20 Linear |R| = [33m2.076238e+03[39m
  Linear solve did not converge due to DIVERGED_ITS iterations 20
 2 Nonlinear |R| = [33m2.561053e+03[39m
      0 Linear |R| = [32m2.561053e+03[39m
      1 Linear |R| = [33m2.560489e+03[39m
      2 Linear |R| = [33m2.547264e+03[39m
      3 Linear |R| = [32m2.375457e+03[39m
      4 Linear |R| = [33m2.344577e+03[39m
      5 Linear |R| = [33m2.267368e+03[39m
      6 Linear |R| = [33m2.241824e+03[39m
      7 Linear |R| = [33m2.233061e+03[39m
      8 Linear |R| = [33m2.220654e+03[39m
      9 Linear |R| = [33m2.211853e+03[39m
     10 Linear |R| = [33m2.198075e+03[39m
     11 Linear |R| = [33m2.188941e+03[39m
     12 Linear |R| = [33m2.188866e+03[39m
     13 Linear |R| = [33m2.182814e+03[39m
     14 Linear |R| = [33m2.182807e+03[39m
     15 Linear |R| = [33m2.182572e+03[39m
     16 Linear |R| = [33m2.177682e+03[39m
     17 Linear |R| = [33m2.172770e+03[39m
     18 Linear |R| = [33m2.147531e+03[39m
     19 Linear |R| = [33m2.136133e+03[39m
     20 Linear |R| = [33m2.116094e+03[39m
  Linear solve did not converge due to DIVERGED_ITS iterations 20
 3 Nonlinear |R| = [33m2.561053e+03[39m
      0 Linear |R| = [32m2.561053e+03[39m
      1 Linear |R| = [33m2.560404e+03[39m
      2 Linear |R| = [33m2.511577e+03[39m
      3 Linear |R| = [33m2.443226e+03[39m
      4 Linear |R| = [33m2.398289e+03[39m
      5 Linear |R| = [33m2.384758e+03[39m
      6 Linear |R| = [33m2.372902e+03[39m
      7 Linear |R| = [33m2.324766e+03[39m
      8 Linear |R| = [33m2.286886e+03[39m
      9 Linear |R| = [33m2.282946e+03[39m
     10 Linear |R| = [33m2.276409e+03[39m
     11 Linear |R| = [33m2.264424e+03[39m
     12 Linear |R| = [33m2.255223e+03[39m
     13 Linear |R| = [33m2.250842e+03[39m
     14 Linear |R| = [33m2.202084e+03[39m
     15 Linear |R| = [33m2.123486e+03[39m
     16 Linear |R| = [33m2.119454e+03[39m
     17 Linear |R| = [33m2.110003e+03[39m
     18 Linear |R| = [33m2.106350e+03[39m
     19 Linear |R| = [32m1.904666e+03[39m
     20 Linear |R| = [33m1.904114e+03[39m
  Linear solve did not converge due to DIVERGED_ITS iterations 20
Nonlinear solve did not converge due to DIVERGED_LINE_SEARCH iterations 3
[31m Solve Did NOT Converge![39m
Aborting as solve did not converge

Solve failed, cutting timestep.

Time Step 2, time = 14.783, dt = 4.78297
 0 Nonlinear |R| = [32m3.227676e+03[39m
      0 Linear |R| = [32m3.227676e+03[39m
      1 Linear |R| = [32m2.849881e+03[39m
      2 Linear |R| = [33m2.816355e+03[39m
      3 Linear |R| = [33m2.726026e+03[39m
      4 Linear |R| = [33m2.717867e+03[39m
      5 Linear |R| = [33m2.712106e+03[39m
      6 Linear |R| = [33m2.705979e+03[39m
      7 Linear |R| = [33m2.691940e+03[39m
      8 Linear |R| = [33m2.677731e+03[39m
      9 Linear |R| = [33m2.555145e+03[39m
     10 Linear |R| = [33m2.554231e+03[39m
     11 Linear |R| = [33m2.548410e+03[39m
     12 Linear |R| = [33m2.537696e+03[39m
     13 Linear |R| = [33m2.530052e+03[39m
     14 Linear |R| = [33m2.529828e+03[39m
     15 Linear |R| = [33m2.527977e+03[39m
     16 Linear |R| = [33m2.510153e+03[39m
     17 Linear |R| = [33m2.509357e+03[39m
     18 Linear |R| = [33m2.451060e+03[39m
     19 Linear |R| = [33m2.438547e+03[39m
     20 Linear |R| = [33m2.436437e+03[39m
  Linear solve did not converge due to DIVERGED_ITS iterations 20
 1 Nonlinear |R| = [32m2.549212e+03[39m
      0 Linear |R| = [32m2.549212e+03[39m
      1 Linear |R| = [33m2.498019e+03[39m
      2 Linear |R| = [33m2.493496e+03[39m
      3 Linear |R| = [33m2.487975e+03[39m
      4 Linear |R| = [33m2.467614e+03[39m
      5 Linear |R| = [33m2.466202e+03[39m
      6 Linear |R| = [33m2.459362e+03[39m
      7 Linear |R| = [33m2.442514e+03[39m
      8 Linear |R| = [33m2.437341e+03[39m
      9 Linear |R| = [33m2.400020e+03[39m
     10 Linear |R| = [33m2.399300e+03[39m
     11 Linear |R| = [33m2.383599e+03[39m
     12 Linear |R| = [33m2.382777e+03[39m
     13 Linear |R| = [33m2.380591e+03[39m
     14 Linear |R| = [33m2.374932e+03[39m
     15 Linear |R| = [33m2.370939e+03[39m
     16 Linear |R| = [33m2.366282e+03[39m
     17 Linear |R| = [33m2.288958e+03[39m
     18 Linear |R| = [33m2.288819e+03[39m
     19 Linear |R| = [33m2.271082e+03[39m
     20 Linear |R| = [33m2.270539e+03[39m
  Linear solve did not converge due to DIVERGED_ITS iterations 20
 2 Nonlinear |R| = [33m2.549212e+03[39m
      0 Linear |R| = [32m2.549212e+03[39m
      1 Linear |R| = [33m2.539244e+03[39m
      2 Linear |R| = [33m2.528803e+03[39m
      3 Linear |R| = [33m2.516459e+03[39m
      4 Linear |R| = [33m2.406182e+03[39m
      5 Linear |R| = [33m2.387478e+03[39m
      6 Linear |R| = [33m2.381503e+03[39m
      7 Linear |R| = [33m2.379286e+03[39m
      8 Linear |R| = [33m2.379189e+03[39m
      9 Linear |R| = [33m2.369579e+03[39m
     10 Linear |R| = [33m2.352990e+03[39m
     11 Linear |R| = [33m2.339744e+03[39m
     12 Linear |R| = [33m2.334449e+03[39m
     13 Linear |R| = [33m2.330907e+03[39m
     14 Linear |R| = [33m2.290822e+03[39m
     15 Linear |R| = [33m2.249186e+03[39m
     16 Linear |R| = [33m2.228691e+03[39m
     17 Linear |R| = [33m2.217941e+03[39m
     18 Linear |R| = [33m2.210345e+03[39m
     19 Linear |R| = [33m2.204500e+03[39m
     20 Linear |R| = [33m2.201699e+03[39m
  Linear solve did not converge due to DIVERGED_ITS iterations 20
 3 Nonlinear |R| = [33m2.549212e+03[39m
      0 Linear |R| = [32m2.549212e+03[39m
      1 Linear |R| = [33m2.527590e+03[39m
      2 Linear |R| = [33m2.480944e+03[39m
      3 Linear |R| = [33m2.461984e+03[39m
      4 Linear |R| = [33m2.444326e+03[39m
      5 Linear |R| = [33m2.444125e+03[39m
      6 Linear |R| = [33m2.406991e+03[39m
      7 Linear |R| = [33m2.395491e+03[39m
      8 Linear |R| = [33m2.368984e+03[39m
      9 Linear |R| = [33m2.348138e+03[39m
     10 Linear |R| = [33m2.347548e+03[39m
     11 Linear |R| = [33m2.339426e+03[39m
     12 Linear |R| = [33m2.338936e+03[39m
     13 Linear |R| = [33m2.328598e+03[39m
     14 Linear |R| = [33m2.323527e+03[39m
     15 Linear |R| = [33m2.322982e+03[39m
     16 Linear |R| = [33m2.307096e+03[39m
     17 Linear |R| = [33m2.307095e+03[39m
     18 Linear |R| = [33m2.306792e+03[39m
     19 Linear |R| = [33m2.286885e+03[39m
     20 Linear |R| = [33m2.248616e+03[39m
  Linear solve did not converge due to DIVERGED_ITS iterations 20
Nonlinear solve did not converge due to DIVERGED_LINE_SEARCH iterations 3
[31m Solve Did NOT Converge![39m
Aborting as solve did not converge

Solve failed, cutting timestep.

Time Step 2, time = 14.3047, dt = 4.30467
 0 Nonlinear |R| = [32m3.227676e+03[39m
      0 Linear |R| = [32m3.227676e+03[39m
      1 Linear |R| = [32m3.008617e+03[39m
      2 Linear |R| = [33m2.891749e+03[39m
      3 Linear |R| = [33m2.834344e+03[39m
      4 Linear |R| = [33m2.737847e+03[39m
      5 Linear |R| = [33m2.658571e+03[39m
      6 Linear |R| = [33m2.655247e+03[39m
      7 Linear |R| = [33m2.621033e+03[39m
      8 Linear |R| = [33m2.600805e+03[39m
      9 Linear |R| = [33m2.568130e+03[39m
     10 Linear |R| = [33m2.448278e+03[39m
     11 Linear |R| = [33m2.427467e+03[39m
     12 Linear |R| = [33m2.388289e+03[39m
     13 Linear |R| = [33m2.348578e+03[39m
     14 Linear |R| = [33m2.252219e+03[39m
     15 Linear |R| = [33m2.236445e+03[39m
     16 Linear |R| = [33m2.205590e+03[39m
     17 Linear |R| = [33m2.196807e+03[39m
     18 Linear |R| = [33m2.195839e+03[39m
     19 Linear |R| = [33m2.171494e+03[39m
     20 Linear |R| = [33m2.170185e+03[39m
  Linear solve did not converge due to DIVERGED_ITS iterations 20
 1 Nonlinear |R| = [32m2.352685e+03[39m
      0 Linear |R| = [32m2.352685e+03[39m
      1 Linear |R| = [33m2.326947e+03[39m
      2 Linear |R| = [33m2.325109e+03[39m
      3 Linear |R| = [33m2.311852e+03[39m
      4 Linear |R| = [33m2.311262e+03[39m
      5 Linear |R| = [33m2.304034e+03[39m
      6 Linear |R| = [33m2.275733e+03[39m
      7 Linear |R| = [33m2.237071e+03[39m
      8 Linear |R| = [33m2.174153e+03[39m
      9 Linear |R| = [33m2.174109e+03[39m
     10 Linear |R| = [33m2.172395e+03[39m
     11 Linear |R| = [33m2.159194e+03[39m
     12 Linear |R| = [33m2.156584e+03[39m
     13 Linear |R| = [33m2.111151e+03[39m
     14 Linear |R| = [33m2.104897e+03[39m
     15 Linear |R| = [33m2.046409e+03[39m
     16 Linear |R| = [33m2.041709e+03[39m
     17 Linear |R| = [33m1.997917e+03[39m
     18 Linear |R| = [33m1.973125e+03[39m
     19 Linear |R| = [32m1.852263e+03[39m
     20 Linear |R| = [33m1.782521e+03[39m
  Linear solve did not converge due to DIVERGED_ITS iterations 20
 2 Nonlinear |R| = [33m2.352684e+03[39m
      0 Linear |R| = [32m2.352684e+03[39m
      1 Linear |R| = [33m2.349801e+03[39m
      2 Linear |R| = [33m2.330543e+03[39m
      3 Linear |R| = [33m2.290838e+03[39m
      4 Linear |R| = [33m2.262347e+03[39m
      5 Linear |R| = [33m2.257215e+03[39m
      6 Linear |R| = [33m2.252164e+03[39m
      7 Linear |R| = [33m2.232878e+03[39m
      8 Linear |R| = [33m2.232143e+03[39m
      9 Linear |R| = [33m2.197238e+03[39m
     10 Linear |R| = [33m2.172319e+03[39m
     11 Linear |R| = [33m2.142526e+03[39m
     12 Linear |R| = [33m2.130783e+03[39m
     13 Linear |R| = [33m2.126204e+03[39m
     14 Linear |R| = [33m2.126196e+03[39m
     15 Linear |R| = [33m2.114888e+03[39m
     16 Linear |R| = [33m2.114840e+03[39m
     17 Linear |R| = [33m2.112732e+03[39m
     18 Linear |R| = [33m2.043386e+03[39m
     19 Linear |R| = [33m2.040090e+03[39m
     20 Linear |R| = [33m2.008941e+03[39m
  Linear solve did not converge due to DIVERGED_ITS iterations 20
 3 Nonlinear |R| = [33m2.352684e+03[39m
      0 Linear |R| = [32m2.352684e+03[39m
      1 Linear |R| = [33m2.350784e+03[39m
      2 Linear |R| = [33m2.350547e+03[39m
      3 Linear |R| = [33m2.344501e+03[39m
      4 Linear |R| = [33m2.343526e+03[39m
      5 Linear |R| = [33m2.308420e+03[39m
      6 Linear |R| = [33m2.296993e+03[39m
      7 Linear |R| = [33m2.264402e+03[39m
      8 Linear |R| = [33m2.259823e+03[39m
      9 Linear |R| = [33m2.219268e+03[39m
     10 Linear |R| = [33m2.219257e+03[39m
     11 Linear |R| = [33m2.186505e+03[39m
     12 Linear |R| = [33m2.167997e+03[39m
     13 Linear |R| = [33m2.152171e+03[39m
     14 Linear |R| = [33m2.124243e+03[39m
     15 Linear |R| = [33m2.097267e+03[39m
     16 Linear |R| = [33m2.090357e+03[39m
     17 Linear |R| = [33m2.088591e+03[39m
     18 Linear |R| = [33m2.078277e+03[39m
     19 Linear |R| = [33m2.071278e+03[39m
     20 Linear |R| = [33m2.070794e+03[39m
  Linear solve did not converge due to DIVERGED_ITS iterations 20
 4 Nonlinear |R| = [33m2.352684e+03[39m
      0 Linear |R| = [32m2.352684e+03[39m
      1 Linear |R| = [33m2.351391e+03[39m
      2 Linear |R| = [33m2.343676e+03[39m
      3 Linear |R| = [33m2.328902e+03[39m
      4 Linear |R| = [33m2.315351e+03[39m
      5 Linear |R| = [33m2.298866e+03[39m
      6 Linear |R| = [33m2.289703e+03[39m
      7 Linear |R| = [33m2.285390e+03[39m
      8 Linear |R| = [33m2.270315e+03[39m
      9 Linear |R| = [33m2.179851e+03[39m
     10 Linear |R| = [33m2.173222e+03[39m
     11 Linear |R| = [33m2.171108e+03[39m
     12 Linear |R| = [33m2.138571e+03[39m
     13 Linear |R| = [33m2.135257e+03[39m
     14 Linear |R| = [33m2.132265e+03[39m
     15 Linear |R| = [33m2.118347e+03[39m
     16 Linear |R| = [33m2.109329e+03[39m
     17 Linear |R| = [33m2.101911e+03[39m
     18 Linear |R| = [33m2.075115e+03[39m
     19 Linear |R| = [33m2.040509e+03[39m
     20 Linear |R| = [32m1.930330e+03[39m
  Linear solve did not converge due to DIVERGED_ITS iterations 20
 5 Nonlinear |R| = [33m2.352684e+03[39m
      0 Linear |R| = [32m2.352684e+03[39m
      1 Linear |R| = [33m2.334201e+03[39m
      2 Linear |R| = [33m2.334193e+03[39m
      3 Linear |R| = [33m2.330025e+03[39m
      4 Linear |R| = [33m2.321708e+03[39m
      5 Linear |R| = [33m2.309719e+03[39m
      6 Linear |R| = [33m2.275016e+03[39m
      7 Linear |R| = [33m2.267959e+03[39m
      8 Linear |R| = [33m2.264843e+03[39m
      9 Linear |R| = [33m2.212063e+03[39m
     10 Linear |R| = [33m2.206253e+03[39m
     11 Linear |R| = [33m2.180437e+03[39m
     12 Linear |R| = [33m2.179998e+03[39m
     13 Linear |R| = [33m2.178808e+03[39m
     14 Linear |R| = [33m2.177852e+03[39m
     15 Linear |R| = [33m2.171918e+03[39m
     16 Linear |R| = [33m2.171280e+03[39m
     17 Linear |R| = [33m2.143532e+03[39m
     18 Linear |R| = [33m2.143039e+03[39m
     19 Linear |R| = [33m2.074066e+03[39m
     20 Linear |R| = [33m2.074041e+03[39m
  Linear solve did not converge due to DIVERGED_ITS iterations 20
 6 Nonlinear |R| = [33m2.352650e+03[39m
      0 Linear |R| = [32m2.352650e+03[39m
      1 Linear |R| = [33m2.338739e+03[39m
      2 Linear |R| = [33m2.320914e+03[39m
      3 Linear |R| = [33m2.304039e+03[39m
      4 Linear |R| = [33m2.303776e+03[39m
      5 Linear |R| = [33m2.293132e+03[39m
      6 Linear |R| = [33m2.282390e+03[39m
      7 Linear |R| = [33m2.282316e+03[39m
      8 Linear |R| = [33m2.271232e+03[39m
      9 Linear |R| = [33m2.260158e+03[39m
     10 Linear |R| = [33m2.255486e+03[39m
     11 Linear |R| = [33m2.243826e+03[39m
     12 Linear |R| = [33m2.240199e+03[39m
     13 Linear |R| = [33m2.237823e+03[39m
     14 Linear |R| = [33m2.232718e+03[39m
     15 Linear |R| = [33m2.215874e+03[39m
     16 Linear |R| = [33m2.184572e+03[39m
     17 Linear |R| = [33m2.172089e+03[39m
     18 Linear |R| = [33m2.165443e+03[39m
     19 Linear |R| = [33m2.143112e+03[39m
     20 Linear |R| = [33m2.119675e+03[39m
  Linear solve did not converge due to DIVERGED_ITS iterations 20
 7 Nonlinear |R| = [33m2.352650e+03[39m
      0 Linear |R| = [32m2.352650e+03[39m
      1 Linear |R| = [33m2.335459e+03[39m
      2 Linear |R| = [33m2.335223e+03[39m
      3 Linear |R| = [33m2.308654e+03[39m
      4 Linear |R| = [33m2.277835e+03[39m
      5 Linear |R| = [33m2.256356e+03[39m
      6 Linear |R| = [33m2.244006e+03[39m
      7 Linear |R| = [33m2.243092e+03[39m
      8 Linear |R| = [33m2.242249e+03[39m
      9 Linear |R| = [33m2.242195e+03[39m
     10 Linear |R| = [33m2.237641e+03[39m
     11 Linear |R| = [33m2.236015e+03[39m
     12 Linear |R| = [33m2.231480e+03[39m
     13 Linear |R| = [33m2.186053e+03[39m
     14 Linear |R| = [33m2.180022e+03[39m
     15 Linear |R| = [33m2.178020e+03[39m
     16 Linear |R| = [33m2.158295e+03[39m
     17 Linear |R| = [33m2.144206e+03[39m
     18 Linear |R| = [33m2.138072e+03[39m
     19 Linear |R| = [33m2.135850e+03[39m
     20 Linear |R| = [33m2.108414e+03[39m
  Linear solve did not converge due to DIVERGED_ITS iterations 20
 8 Nonlinear |R| = [33m2.352627e+03[39m
      0 Linear |R| = [32m2.352627e+03[39m
      1 Linear |R| = [33m2.341238e+03[39m
      2 Linear |R| = [33m2.335143e+03[39m
      3 Linear |R| = [33m2.331365e+03[39m
      4 Linear |R| = [33m2.331334e+03[39m
      5 Linear |R| = [33m2.316337e+03[39m
      6 Linear |R| = [33m2.313501e+03[39m
      7 Linear |R| = [33m2.301801e+03[39m
      8 Linear |R| = [33m2.289592e+03[39m
      9 Linear |R| = [33m2.286674e+03[39m
     10 Linear |R| = [33m2.235748e+03[39m
     11 Linear |R| = [33m2.186240e+03[39m
     12 Linear |R| = [33m2.169082e+03[39m
     13 Linear |R| = [33m2.168845e+03[39m
     14 Linear |R| = [33m2.144919e+03[39m
     15 Linear |R| = [33m2.144680e+03[39m
     16 Linear |R| = [33m2.108695e+03[39m
     17 Linear |R| = [33m2.098974e+03[39m
     18 Linear |R| = [33m2.086509e+03[39m
     19 Linear |R| = [33m2.064785e+03[39m
     20 Linear |R| = [33m2.041743e+03[39m
  Linear solve did not converge due to DIVERGED_ITS iterations 20
 9 Nonlinear |R| = [33m2.352627e+03[39m
      0 Linear |R| = [32m2.352627e+03[39m
      1 Linear |R| = [33m2.326783e+03[39m
      2 Linear |R| = [33m2.301971e+03[39m
      3 Linear |R| = [33m2.277591e+03[39m
      4 Linear |R| = [33m2.269462e+03[39m
      5 Linear |R| = [33m2.265636e+03[39m
      6 Linear |R| = [33m2.264070e+03[39m
      7 Linear |R| = [33m2.259167e+03[39m
      8 Linear |R| = [33m2.258321e+03[39m
      9 Linear |R| = [33m2.218648e+03[39m
     10 Linear |R| = [33m2.217189e+03[39m
     11 Linear |R| = [33m2.210498e+03[39m
     12 Linear |R| = [33m2.148292e+03[39m
     13 Linear |R| = [33m2.148113e+03[39m
     14 Linear |R| = [33m2.147669e+03[39m
     15 Linear |R| = [33m2.144699e+03[39m
     16 Linear |R| = [33m2.144249e+03[39m
     17 Linear |R| = [33m2.133273e+03[39m
     18 Linear |R| = [33m2.101929e+03[39m
     19 Linear |R| = [33m2.096398e+03[39m
     20 Linear |R| = [33m2.094847e+03[39m
  Linear solve did not converge due to DIVERGED_ITS iterations 20
10 Nonlinear |R| = [33m2.352627e+03[39m
      0 Linear |R| = [32m2.352627e+03[39m
      1 Linear |R| = [33m2.325860e+03[39m
      2 Linear |R| = [33m2.292441e+03[39m
      3 Linear |R| = [33m2.287313e+03[39m
      4 Linear |R| = [33m2.285879e+03[39m
      5 Linear |R| = [33m2.270206e+03[39m
      6 Linear |R| = [33m2.241687e+03[39m
      7 Linear |R| = [33m2.241473e+03[39m
      8 Linear |R| = [33m2.209490e+03[39m
      9 Linear |R| = [33m2.209239e+03[39m
     10 Linear |R| = [33m2.209167e+03[39m
     11 Linear |R| = [33m2.202641e+03[39m
     12 Linear |R| = [33m2.202150e+03[39m
     13 Linear |R| = [33m2.194392e+03[39m
     14 Linear |R| = [33m2.164804e+03[39m
     15 Linear |R| = [33m2.152061e+03[39m
     16 Linear |R| = [33m2.130600e+03[39m
     17 Linear |R| = [33m2.126786e+03[39m
     18 Linear |R| = [33m2.118454e+03[39m
     19 Linear |R| = [33m2.116722e+03[39m
     20 Linear |R| = [33m2.081787e+03[39m
  Linear solve did not converge due to DIVERGED_ITS iterations 20
Nonlinear solve did not converge due to DIVERGED_LINE_SEARCH iterations 10
[31m Solve Did NOT Converge![39m
Aborting as solve did not converge

Solve failed, cutting timestep.

Time Step 2, time = 13.8742, dt = 3.8742
 0 Nonlinear |R| = [32m3.227676e+03[39m
      0 Linear |R| = [32m3.227676e+03[39m
      1 Linear |R| = [32m2.989436e+03[39m
      2 Linear |R| = [33m2.988276e+03[39m
      3 Linear |R| = [33m2.986765e+03[39m
      4 Linear |R| = [33m2.923777e+03[39m
      5 Linear |R| = [32m2.749137e+03[39m
      6 Linear |R| = [33m2.726083e+03[39m
      7 Linear |R| = [33m2.682525e+03[39m
      8 Linear |R| = [33m2.677917e+03[39m
      9 Linear |R| = [33m2.611528e+03[39m
     10 Linear |R| = [33m2.535260e+03[39m
     11 Linear |R| = [33m2.534629e+03[39m
     12 Linear |R| = [33m2.531315e+03[39m
     13 Linear |R| = [33m2.489309e+03[39m
     14 Linear |R| = [33m2.488152e+03[39m
     15 Linear |R| = [33m2.487407e+03[39m
     16 Linear |R| = [33m2.485550e+03[39m
     17 Linear |R| = [33m2.395492e+03[39m
     18 Linear |R| = [33m2.386202e+03[39m
     19 Linear |R| = [33m2.313295e+03[39m
     20 Linear |R| = [33m2.309021e+03[39m
  Linear solve did not converge due to DIVERGED_ITS iterations 20
 1 Nonlinear |R| = [32m2.342529e+03[39m
      0 Linear |R| = [32m2.342529e+03[39m
      1 Linear |R| = [33m2.342046e+03[39m
      2 Linear |R| = [33m2.326289e+03[39m
      3 Linear |R| = [33m2.319818e+03[39m
      4 Linear |R| = [33m2.318725e+03[39m
      5 Linear |R| = [33m2.302641e+03[39m
      6 Linear |R| = [33m2.289636e+03[39m
      7 Linear |R| = [33m2.254863e+03[39m
      8 Linear |R| = [33m2.252714e+03[39m
      9 Linear |R| = [33m2.249150e+03[39m
     10 Linear |R| = [33m2.237886e+03[39m
     11 Linear |R| = [33m2.235004e+03[39m
     12 Linear |R| = [33m2.233465e+03[39m
     13 Linear |R| = [33m2.231264e+03[39m
     14 Linear |R| = [33m2.222617e+03[39m
     15 Linear |R| = [33m2.217181e+03[39m
     16 Linear |R| = [33m2.204711e+03[39m
     17 Linear |R| = [33m2.193790e+03[39m
     18 Linear |R| = [33m2.193096e+03[39m
     19 Linear |R| = [33m2.182787e+03[39m
     20 Linear |R| = [33m2.182318e+03[39m
  Linear solve did not converge due to DIVERGED_ITS iterations 20
 2 Nonlinear |R| = [33m2.342529e+03[39m
      0 Linear |R| = [32m2.342529e+03[39m
      1 Linear |R| = [33m2.338199e+03[39m
      2 Linear |R| = [33m2.338128e+03[39m
      3 Linear |R| = [33m2.330347e+03[39m
      4 Linear |R| = [33m2.305619e+03[39m
      5 Linear |R| = [33m2.298467e+03[39m
      6 Linear |R| = [33m2.260335e+03[39m
      7 Linear |R| = [33m2.233065e+03[39m
      8 Linear |R| = [33m2.232651e+03[39m
      9 Linear |R| = [33m2.214545e+03[39m
     10 Linear |R| = [33m2.214186e+03[39m
     11 Linear |R| = [33m2.196556e+03[39m
     12 Linear |R| = [33m2.185161e+03[39m
     13 Linear |R| = [33m2.180408e+03[39m
     14 Linear |R| = [33m2.174302e+03[39m
     15 Linear |R| = [33m2.151477e+03[39m
     16 Linear |R| = [33m2.094078e+03[39m
     17 Linear |R| = [33m2.069762e+03[39m
     18 Linear |R| = [33m2.058861e+03[39m
     19 Linear |R| = [33m2.057609e+03[39m
     20 Linear |R| = [33m2.026496e+03[39m
  Linear solve did not converge due to DIVERGED_ITS iterations 20
 3 Nonlinear |R| = [33m2.342526e+03[39m
      0 Linear |R| = [32m2.342526e+03[39m
      1 Linear |R| = [33m2.320990e+03[39m
      2 Linear |R| = [33m2.299817e+03[39m
      3 Linear |R| = [33m2.292647e+03[39m
      4 Linear |R| = [33m2.289659e+03[39m
      5 Linear |R| = [33m2.289653e+03[39m
      6 Linear |R| = [33m2.255426e+03[39m
      7 Linear |R| = [33m2.234655e+03[39m
      8 Linear |R| = [33m2.193210e+03[39m
      9 Linear |R| = [33m2.193207e+03[39m
     10 Linear |R| = [33m2.192342e+03[39m
     11 Linear |R| = [33m2.181571e+03[39m
     12 Linear |R| = [33m2.176443e+03[39m
     13 Linear |R| = [33m2.162578e+03[39m
     14 Linear |R| = [33m2.162544e+03[39m
     15 Linear |R| = [33m2.124411e+03[39m
     16 Linear |R| = [33m2.108283e+03[39m
     17 Linear |R| = [33m2.091649e+03[39m
     18 Linear |R| = [33m2.090455e+03[39m
     19 Linear |R| = [33m2.077661e+03[39m
     20 Linear |R| = [33m2.036414e+03[39m
  Linear solve did not converge due to DIVERGED_ITS iterations 20
 4 Nonlinear |R| = [33m2.342526e+03[39m
      0 Linear |R| = [32m2.342526e+03[39m
      1 Linear |R| = [33m2.318495e+03[39m
      2 Linear |R| = [33m2.318481e+03[39m
      3 Linear |R| = [33m2.269337e+03[39m
      4 Linear |R| = [33m2.253086e+03[39m
      5 Linear |R| = [33m2.198250e+03[39m
      6 Linear |R| = [32m2.069336e+03[39m
      7 Linear |R| = [33m2.068128e+03[39m
      8 Linear |R| = [33m2.055125e+03[39m
      9 Linear |R| = [33m2.039546e+03[39m
     10 Linear |R| = [33m2.025569e+03[39m
     11 Linear |R| = [33m2.023247e+03[39m
     12 Linear |R| = [33m2.013427e+03[39m
     13 Linear |R| = [33m2.003582e+03[39m
     14 Linear |R| = [33m2.003279e+03[39m
     15 Linear |R| = [33m2.000098e+03[39m
     16 Linear |R| = [33m1.998801e+03[39m
     17 Linear |R| = [33m1.956688e+03[39m
     18 Linear |R| = [33m1.956568e+03[39m
     19 Linear |R| = [33m1.951200e+03[39m
     20 Linear |R| = [33m1.945328e+03[39m
  Linear solve did not converge due to DIVERGED_ITS iterations 20
Nonlinear solve did not converge due to DIVERGED_LINE_SEARCH iterations 4
[31m Solve Did NOT Converge![39m
Aborting as solve did not converge

Solve failed, cutting timestep.

Time Step 2, time = 13.4868, dt = 3.48678
 0 Nonlinear |R| = [32m3.227676e+03[39m
      0 Linear |R| = [32m3.227676e+03[39m
      1 Linear |R| = [32m2.944291e+03[39m
      2 Linear |R| = [33m2.837811e+03[39m
      3 Linear |R| = [33m2.816240e+03[39m
      4 Linear |R| = [33m2.795702e+03[39m
      5 Linear |R| = [32m2.568958e+03[39m
      6 Linear |R| = [33m2.568589e+03[39m
      7 Linear |R| = [33m2.479943e+03[39m
      8 Linear |R| = [33m2.474711e+03[39m
      9 Linear |R| = [32m2.325185e+03[39m
     10 Linear |R| = [33m2.325167e+03[39m
     11 Linear |R| = [33m2.283192e+03[39m
     12 Linear |R| = [33m2.282895e+03[39m
     13 Linear |R| = [33m2.273094e+03[39m
     14 Linear |R| = [33m2.273083e+03[39m
     15 Linear |R| = [33m2.255077e+03[39m
     16 Linear |R| = [33m2.223211e+03[39m
     17 Linear |R| = [33m2.220423e+03[39m
     18 Linear |R| = [33m2.219275e+03[39m
     19 Linear |R| = [33m2.193272e+03[39m
     20 Linear |R| = [33m2.184297e+03[39m
  Linear solve did not converge due to DIVERGED_ITS iterations 20
 1 Nonlinear |R| = [32m2.514917e+03[39m
      0 Linear |R| = [32m2.514917e+03[39m
      1 Linear |R| = [33m2.483733e+03[39m
      2 Linear |R| = [33m2.456109e+03[39m
      3 Linear |R| = [33m2.399989e+03[39m
      4 Linear |R| = [33m2.329703e+03[39m
      5 Linear |R| = [33m2.328728e+03[39m
      6 Linear |R| = [33m2.321023e+03[39m
      7 Linear |R| = [33m2.278862e+03[39m
      8 Linear |R| = [33m2.240460e+03[39m
      9 Linear |R| = [33m2.234904e+03[39m
     10 Linear |R| = [33m2.234513e+03[39m
     11 Linear |R| = [33m2.230053e+03[39m
     12 Linear |R| = [33m2.172050e+03[39m
     13 Linear |R| = [33m2.163302e+03[39m
     14 Linear |R| = [33m2.146372e+03[39m
     15 Linear |R| = [33m2.144650e+03[39m
     16 Linear |R| = [33m2.041047e+03[39m
     17 Linear |R| = [33m2.028900e+03[39m
     18 Linear |R| = [33m2.023423e+03[39m
     19 Linear |R| = [33m2.023330e+03[39m
     20 Linear |R| = [33m2.015977e+03[39m
  Linear solve did not converge due to DIVERGED_ITS iterations 20
 2 Nonlinear |R| = [33m2.514917e+03[39m
      0 Linear |R| = [32m2.514917e+03[39m
      1 Linear |R| = [33m2.497759e+03[39m
      2 Linear |R| = [32m2.176799e+03[39m
      3 Linear |R| = [33m2.176773e+03[39m
      4 Linear |R| = [33m2.176207e+03[39m
      5 Linear |R| = [33m2.143872e+03[39m
      6 Linear |R| = [33m2.132406e+03[39m
      7 Linear |R| = [33m2.098789e+03[39m
      8 Linear |R| = [33m2.087983e+03[39m
      9 Linear |R| = [33m2.087246e+03[39m
     10 Linear |R| = [33m2.086831e+03[39m
     11 Linear |R| = [33m2.074558e+03[39m
     12 Linear |R| = [33m2.074154e+03[39m
     13 Linear |R| = [33m2.062510e+03[39m
     14 Linear |R| = [33m2.032114e+03[39m
     15 Linear |R| = [33m2.007096e+03[39m
     16 Linear |R| = [33m1.993424e+03[39m
     17 Linear |R| = [33m1.958807e+03[39m
     18 Linear |R| = [33m1.917276e+03[39m
     19 Linear |R| = [33m1.915472e+03[39m
     20 Linear |R| = [33m1.912611e+03[39m
  Linear solve did not converge due to DIVERGED_ITS iterations 20
 3 Nonlinear |R| = [33m2.514917e+03[39m
      0 Linear |R| = [32m2.514917e+03[39m
      1 Linear |R| = [33m2.426585e+03[39m
      2 Linear |R| = [33m2.426261e+03[39m
      3 Linear |R| = [33m2.320852e+03[39m
      4 Linear |R| = [32m1.977512e+03[39m
      5 Linear |R| = [33m1.920972e+03[39m
      6 Linear |R| = [33m1.916187e+03[39m
      7 Linear |R| = [33m1.898449e+03[39m
      8 Linear |R| = [33m1.876113e+03[39m
      9 Linear |R| = [33m1.870528e+03[39m
     10 Linear |R| = [33m1.868865e+03[39m
     11 Linear |R| = [33m1.864345e+03[39m
     12 Linear |R| = [33m1.855133e+03[39m
     13 Linear |R| = [33m1.854064e+03[39m
     14 Linear |R| = [33m1.828612e+03[39m
     15 Linear |R| = [33m1.822129e+03[39m
     16 Linear |R| = [33m1.800271e+03[39m
     17 Linear |R| = [33m1.800105e+03[39m
     18 Linear |R| = [33m1.783048e+03[39m
     19 Linear |R| = [33m1.781597e+03[39m
     20 Linear |R| = [33m1.772303e+03[39m
  Linear solve did not converge due to DIVERGED_ITS iterations 20
 4 Nonlinear |R| = [33m2.514917e+03[39m
      0 Linear |R| = [32m2.514917e+03[39m
      1 Linear |R| = [33m2.512430e+03[39m
      2 Linear |R| = [32m2.243232e+03[39m
      3 Linear |R| = [33m2.242204e+03[39m
      4 Linear |R| = [33m2.210818e+03[39m
      5 Linear |R| = [33m2.203815e+03[39m
      6 Linear |R| = [33m2.166438e+03[39m
      7 Linear |R| = [33m2.166114e+03[39m
      8 Linear |R| = [33m2.165721e+03[39m
      9 Linear |R| = [33m2.158205e+03[39m
     10 Linear |R| = [33m2.152788e+03[39m
     11 Linear |R| = [32m1.994181e+03[39m
     12 Linear |R| = [33m1.963432e+03[39m
     13 Linear |R| = [33m1.958774e+03[39m
     14 Linear |R| = [33m1.899447e+03[39m
     15 Linear |R| = [33m1.899358e+03[39m
     16 Linear |R| = [33m1.890634e+03[39m
     17 Linear |R| = [33m1.862635e+03[39m
     18 Linear |R| = [33m1.852382e+03[39m
     19 Linear |R| = [33m1.852258e+03[39m
     20 Linear |R| = [33m1.833231e+03[39m
  Linear solve did not converge due to DIVERGED_ITS iterations 20
Nonlinear solve did not converge due to DIVERGED_LINE_SEARCH iterations 4
[31m Solve Did NOT Converge![39m
Aborting as solve did not converge

Solve failed, cutting timestep.

Time Step 2, time = 13.1381, dt = 3.13811
 0 Nonlinear |R| = [32m3.227676e+03[39m
      0 Linear |R| = [32m3.227676e+03[39m
      1 Linear |R| = [32m2.996852e+03[39m
      2 Linear |R| = [33m2.920510e+03[39m
      3 Linear |R| = [33m2.919105e+03[39m
      4 Linear |R| = [33m2.880270e+03[39m
      5 Linear |R| = [33m2.871976e+03[39m
      6 Linear |R| = [33m2.871144e+03[39m
      7 Linear |R| = [33m2.870607e+03[39m
      8 Linear |R| = [33m2.856837e+03[39m
      9 Linear |R| = [33m2.819290e+03[39m
     10 Linear |R| = [33m2.810892e+03[39m
     11 Linear |R| = [33m2.699685e+03[39m
     12 Linear |R| = [33m2.698515e+03[39m
     13 Linear |R| = [33m2.623680e+03[39m
     14 Linear |R| = [32m2.431564e+03[39m
     15 Linear |R| = [33m2.431423e+03[39m
     16 Linear |R| = [33m2.430646e+03[39m
     17 Linear |R| = [33m2.379319e+03[39m
     18 Linear |R| = [33m2.376093e+03[39m
     19 Linear |R| = [33m2.352226e+03[39m
     20 Linear |R| = [33m2.345911e+03[39m
  Linear solve did not converge due to DIVERGED_ITS iterations 20
 1 Nonlinear |R| = [32m2.278369e+03[39m
      0 Linear |R| = [32m2.278369e+03[39m
      1 Linear |R| = [33m2.277212e+03[39m
      2 Linear |R| = [33m2.223000e+03[39m
      3 Linear |R| = [33m2.222947e+03[39m
      4 Linear |R| = [33m2.204274e+03[39m
      5 Linear |R| = [33m2.193846e+03[39m
      6 Linear |R| = [33m2.192485e+03[39m
      7 Linear |R| = [33m2.187079e+03[39m
      8 Linear |R| = [33m2.169365e+03[39m
      9 Linear |R| = [33m2.168623e+03[39m
     10 Linear |R| = [33m2.168215e+03[39m
     11 Linear |R| = [33m2.148532e+03[39m
     12 Linear |R| = [33m2.136282e+03[39m
     13 Linear |R| = [33m2.124996e+03[39m
     14 Linear |R| = [33m2.104501e+03[39m
     15 Linear |R| = [33m2.100573e+03[39m
     16 Linear |R| = [33m2.090993e+03[39m
     17 Linear |R| = [33m2.090397e+03[39m
     18 Linear |R| = [33m2.024837e+03[39m
     19 Linear |R| = [33m1.982061e+03[39m
     20 Linear |R| = [33m1.918809e+03[39m
  Linear solve did not converge due to DIVERGED_ITS iterations 20
 2 Nonlinear |R| = [33m2.278352e+03[39m
      0 Linear |R| = [32m2.278352e+03[39m
      1 Linear |R| = [33m2.266124e+03[39m
      2 Linear |R| = [33m2.265444e+03[39m
      3 Linear |R| = [33m2.254126e+03[39m
      4 Linear |R| = [33m2.253460e+03[39m
      5 Linear |R| = [33m2.250266e+03[39m
      6 Linear |R| = [33m2.242518e+03[39m
      7 Linear |R| = [33m2.238850e+03[39m
      8 Linear |R| = [33m2.156754e+03[39m
      9 Linear |R| = [33m2.130825e+03[39m
     10 Linear |R| = [33m2.130814e+03[39m
     11 Linear |R| = [33m2.126740e+03[39m
     12 Linear |R| = [33m2.124267e+03[39m
     13 Linear |R| = [33m2.111826e+03[39m
     14 Linear |R| = [33m2.096659e+03[39m
     15 Linear |R| = [33m2.081218e+03[39m
     16 Linear |R| = [33m2.074947e+03[39m
     17 Linear |R| = [33m2.072726e+03[39m
     18 Linear |R| = [33m2.053066e+03[39m
     19 Linear |R| = [33m2.045215e+03[39m
     20 Linear |R| = [33m2.027989e+03[39m
  Linear solve did not converge due to DIVERGED_ITS iterations 20
 3 Nonlinear |R| = [33m2.278352e+03[39m
      0 Linear |R| = [32m2.278352e+03[39m
      1 Linear |R| = [33m2.277404e+03[39m
      2 Linear |R| = [33m2.277344e+03[39m
      3 Linear |R| = [33m2.272264e+03[39m
      4 Linear |R| = [33m2.269840e+03[39m
      5 Linear |R| = [33m2.268834e+03[39m
      6 Linear |R| = [33m2.251557e+03[39m
      7 Linear |R| = [33m2.243049e+03[39m
      8 Linear |R| = [33m2.233316e+03[39m
      9 Linear |R| = [33m2.227057e+03[39m
     10 Linear |R| = [33m2.170096e+03[39m
     11 Linear |R| = [33m2.169935e+03[39m
     12 Linear |R| = [33m2.168502e+03[39m
     13 Linear |R| = [33m2.165890e+03[39m
     14 Linear |R| = [33m2.159895e+03[39m
     15 Linear |R| = [33m2.103217e+03[39m
     16 Linear |R| = [33m2.090202e+03[39m
     17 Linear |R| = [33m2.090124e+03[39m
     18 Linear |R| = [33m2.040851e+03[39m
     19 Linear |R| = [33m2.037683e+03[39m
     20 Linear |R| = [33m2.037548e+03[39m
  Linear solve did not converge due to DIVERGED_ITS iterations 20
Nonlinear solve did not converge due to DIVERGED_LINE_SEARCH iterations 3
[31m Solve Did NOT Converge![39m
Aborting as solve did not converge

Solve failed, cutting timestep.

Time Step 2, time = 12.8243, dt = 2.8243
 0 Nonlinear |R| = [32m3.227676e+03[39m
      0 Linear |R| = [32m3.227676e+03[39m
      1 Linear |R| = [32m2.192753e+03[39m
      2 Linear |R| = [33m2.089780e+03[39m
      3 Linear |R| = [33m2.016030e+03[39m
      4 Linear |R| = [33m2.012475e+03[39m
      5 Linear |R| = [33m2.005068e+03[39m
      6 Linear |R| = [33m1.999565e+03[39m
      7 Linear |R| = [33m1.980424e+03[39m
      8 Linear |R| = [33m1.980252e+03[39m
      9 Linear |R| = [33m1.962590e+03[39m
     10 Linear |R| = [33m1.962468e+03[39m
     11 Linear |R| = [33m1.953053e+03[39m
     12 Linear |R| = [33m1.951085e+03[39m
     13 Linear |R| = [33m1.946400e+03[39m
     14 Linear |R| = [33m1.941528e+03[39m
     15 Linear |R| = [33m1.941255e+03[39m
     16 Linear |R| = [33m1.941087e+03[39m
     17 Linear |R| = [33m1.939788e+03[39m
     18 Linear |R| = [33m1.933823e+03[39m
     19 Linear |R| = [33m1.913722e+03[39m
     20 Linear |R| = [33m1.913720e+03[39m
  Linear solve did not converge due to DIVERGED_ITS iterations 20
 1 Nonlinear |R| = [32m2.773768e+03[39m
      0 Linear |R| = [32m2.773768e+03[39m
      1 Linear |R| = [33m2.764886e+03[39m
      2 Linear |R| = [33m2.764777e+03[39m
      3 Linear |R| = [33m2.626698e+03[39m
      4 Linear |R| = [33m2.614317e+03[39m
      5 Linear |R| = [33m2.598400e+03[39m
      6 Linear |R| = [33m2.591526e+03[39m
      7 Linear |R| = [33m2.519912e+03[39m
      8 Linear |R| = [33m2.518236e+03[39m
      9 Linear |R| = [33m2.475206e+03[39m
     10 Linear |R| = [33m2.436172e+03[39m
     11 Linear |R| = [33m2.429984e+03[39m
     12 Linear |R| = [33m2.427451e+03[39m
     13 Linear |R| = [33m2.396087e+03[39m
     14 Linear |R| = [33m2.373390e+03[39m
     15 Linear |R| = [33m2.371865e+03[39m
     16 Linear |R| = [33m2.364726e+03[39m
     17 Linear |R| = [33m2.355967e+03[39m
     18 Linear |R| = [33m2.326559e+03[39m
     19 Linear |R| = [33m2.326522e+03[39m
     20 Linear |R| = [33m2.324206e+03[39m
  Linear solve did not converge due to DIVERGED_ITS iterations 20
 2 Nonlinear |R| = [33m2.773767e+03[39m
      0 Linear |R| = [32m2.773767e+03[39m
      1 Linear |R| = [33m2.757534e+03[39m
      2 Linear |R| = [33m2.754577e+03[39m
      3 Linear |R| = [33m2.742244e+03[39m
      4 Linear |R| = [33m2.663403e+03[39m
      5 Linear |R| = [33m2.654408e+03[39m
      6 Linear |R| = [33m2.649794e+03[39m
      7 Linear |R| = [33m2.647763e+03[39m
      8 Linear |R| = [33m2.636302e+03[39m
      9 Linear |R| = [33m2.629969e+03[39m
     10 Linear |R| = [33m2.567843e+03[39m
     11 Linear |R| = [33m2.566459e+03[39m
     12 Linear |R| = [33m2.566440e+03[39m
     13 Linear |R| = [33m2.562446e+03[39m
     14 Linear |R| = [33m2.555519e+03[39m
     15 Linear |R| = [33m2.537594e+03[39m
     16 Linear |R| = [33m2.537047e+03[39m
     17 Linear |R| = [33m2.532262e+03[39m
     18 Linear |R| = [33m2.529785e+03[39m
     19 Linear |R| = [33m2.522822e+03[39m
     20 Linear |R| = [33m2.517821e+03[39m
  Linear solve did not converge due to DIVERGED_ITS iterations 20
 3 Nonlinear |R| = [33m2.773767e+03[39m
      0 Linear |R| = [32m2.773767e+03[39m
      1 Linear |R| = [33m2.760184e+03[39m
      2 Linear |R| = [33m2.665312e+03[39m
      3 Linear |R| = [33m2.663253e+03[39m
      4 Linear |R| = [33m2.605246e+03[39m
      5 Linear |R| = [33m2.592436e+03[39m
      6 Linear |R| = [33m2.572694e+03[39m
      7 Linear |R| = [33m2.539415e+03[39m
      8 Linear |R| = [33m2.460927e+03[39m
      9 Linear |R| = [33m2.415800e+03[39m
     10 Linear |R| = [33m2.405864e+03[39m
     11 Linear |R| = [33m2.405647e+03[39m
     12 Linear |R| = [33m2.399392e+03[39m
     13 Linear |R| = [33m2.390540e+03[39m
     14 Linear |R| = [33m2.383779e+03[39m
     15 Linear |R| = [33m2.347382e+03[39m
     16 Linear |R| = [33m2.329382e+03[39m
     17 Linear |R| = [33m2.324244e+03[39m
     18 Linear |R| = [33m2.323791e+03[39m
     19 Linear |R| = [33m2.323103e+03[39m
     20 Linear |R| = [33m2.318395e+03[39m
  Linear solve did not converge due to DIVERGED_ITS iterations 20
 4 Nonlinear |R| = [33m2.773767e+03[39m
      0 Linear |R| = [32m2.773767e+03[39m
      1 Linear |R| = [33m2.731243e+03[39m
      2 Linear |R| = [33m2.727670e+03[39m
      3 Linear |R| = [33m2.681915e+03[39m
      4 Linear |R| = [33m2.662158e+03[39m
      5 Linear |R| = [33m2.600966e+03[39m
      6 Linear |R| = [33m2.600542e+03[39m
      7 Linear |R| = [33m2.598918e+03[39m
      8 Linear |R| = [33m2.593133e+03[39m
      9 Linear |R| = [33m2.567054e+03[39m
     10 Linear |R| = [33m2.560012e+03[39m
     11 Linear |R| = [33m2.558557e+03[39m
     12 Linear |R| = [33m2.558112e+03[39m
     13 Linear |R| = [33m2.538829e+03[39m
     14 Linear |R| = [33m2.521685e+03[39m
     15 Linear |R| = [33m2.520583e+03[39m
     16 Linear |R| = [33m2.507891e+03[39m
     17 Linear |R| = [33m2.502746e+03[39m
     18 Linear |R| = [33m2.502732e+03[39m
     19 Linear |R| = [33m2.421508e+03[39m
     20 Linear |R| = [33m2.419856e+03[39m
  Linear solve did not converge due to DIVERGED_ITS iterations 20
 5 Nonlinear |R| = [33m2.773767e+03[39m
      0 Linear |R| = [32m2.773767e+03[39m
      1 Linear |R| = [33m2.767118e+03[39m
      2 Linear |R| = [33m2.739143e+03[39m
      3 Linear |R| = [33m2.636002e+03[39m
      4 Linear |R| = [32m2.445188e+03[39m
      5 Linear |R| = [33m2.440062e+03[39m
      6 Linear |R| = [33m2.435558e+03[39m
      7 Linear |R| = [33m2.435465e+03[39m
      8 Linear |R| = [33m2.395220e+03[39m
      9 Linear |R| = [33m2.395139e+03[39m
     10 Linear |R| = [33m2.392630e+03[39m
     11 Linear |R| = [33m2.371044e+03[39m
     12 Linear |R| = [33m2.351145e+03[39m
     13 Linear |R| = [33m2.349480e+03[39m
     14 Linear |R| = [33m2.342312e+03[39m
     15 Linear |R| = [33m2.341931e+03[39m
     16 Linear |R| = [33m2.301855e+03[39m
     17 Linear |R| = [33m2.301646e+03[39m
     18 Linear |R| = [33m2.287963e+03[39m
     19 Linear |R| = [33m2.287771e+03[39m
     20 Linear |R| = [33m2.279605e+03[39m
  Linear solve did not converge due to DIVERGED_ITS iterations 20
Nonlinear solve did not converge due to DIVERGED_LINE_SEARCH iterations 5
[31m Solve Did NOT Converge![39m
Aborting as solve did not converge

Solve failed, cutting timestep.

Time Step 2, time = 12.5419, dt = 2.54187
 0 Nonlinear |R| = [32m3.227676e+03[39m
      0 Linear |R| = [32m3.227676e+03[39m
      1 Linear |R| = [32m2.262808e+03[39m
      2 Linear |R| = [32m2.080289e+03[39m
      3 Linear |R| = [33m2.079335e+03[39m
      4 Linear |R| = [33m2.077048e+03[39m
      5 Linear |R| = [33m2.075371e+03[39m
      6 Linear |R| = [33m2.070562e+03[39m
      7 Linear |R| = [33m2.051083e+03[39m
      8 Linear |R| = [33m2.035040e+03[39m
      9 Linear |R| = [33m2.035040e+03[39m
     10 Linear |R| = [33m2.029923e+03[39m
     11 Linear |R| = [33m1.980199e+03[39m
     12 Linear |R| = [33m1.980133e+03[39m
     13 Linear |R| = [33m1.980103e+03[39m
     14 Linear |R| = [33m1.971113e+03[39m
     15 Linear |R| = [33m1.966694e+03[39m
     16 Linear |R| = [33m1.966438e+03[39m
     17 Linear |R| = [33m1.966438e+03[39m
     18 Linear |R| = [33m1.966434e+03[39m
     19 Linear |R| = [33m1.962883e+03[39m
     20 Linear |R| = [33m1.960130e+03[39m
  Linear solve did not converge due to DIVERGED_ITS iterations 20
 1 Nonlinear |R| = [32m1.590775e+03[39m
      0 Linear |R| = [32m1.590775e+03[39m
      1 Linear |R| = [33m1.580960e+03[39m
      2 Linear |R| = [33m1.562887e+03[39m
      3 Linear |R| = [33m1.562486e+03[39m
      4 Linear |R| = [33m1.544817e+03[39m
      5 Linear |R| = [33m1.538167e+03[39m
      6 Linear |R| = [33m1.508440e+03[39m
      7 Linear |R| = [33m1.508373e+03[39m
      8 Linear |R| = [33m1.483167e+03[39m
      9 Linear |R| = [33m1.444438e+03[39m
     10 Linear |R| = [33m1.443927e+03[39m
     11 Linear |R| = [33m1.440373e+03[39m
     12 Linear |R| = [33m1.417594e+03[39m
     13 Linear |R| = [33m1.412185e+03[39m
     14 Linear |R| = [33m1.388534e+03[39m
     15 Linear |R| = [33m1.386280e+03[39m
     16 Linear |R| = [33m1.385425e+03[39m
     17 Linear |R| = [33m1.384007e+03[39m
     18 Linear |R| = [33m1.383105e+03[39m
     19 Linear |R| = [33m1.365301e+03[39m
     20 Linear |R| = [33m1.365254e+03[39m
  Linear solve did not converge due to DIVERGED_ITS iterations 20
 2 Nonlinear |R| = [33m1.590775e+03[39m
      0 Linear |R| = [32m1.590775e+03[39m
      1 Linear |R| = [33m1.587736e+03[39m
      2 Linear |R| = [33m1.577095e+03[39m
      3 Linear |R| = [33m1.532617e+03[39m
      4 Linear |R| = [33m1.515924e+03[39m
      5 Linear |R| = [33m1.502598e+03[39m
      6 Linear |R| = [33m1.480093e+03[39m
      7 Linear |R| = [33m1.444593e+03[39m
      8 Linear |R| = [33m1.398835e+03[39m
      9 Linear |R| = [33m1.382351e+03[39m
     10 Linear |R| = [33m1.382170e+03[39m
     11 Linear |R| = [33m1.378322e+03[39m
     12 Linear |R| = [33m1.378272e+03[39m
     13 Linear |R| = [33m1.377018e+03[39m
     14 Linear |R| = [33m1.376617e+03[39m
     15 Linear |R| = [33m1.371340e+03[39m
     16 Linear |R| = [33m1.361161e+03[39m
     17 Linear |R| = [33m1.361153e+03[39m
     18 Linear |R| = [33m1.338783e+03[39m
     19 Linear |R| = [33m1.334858e+03[39m
     20 Linear |R| = [33m1.330566e+03[39m
  Linear solve did not converge due to DIVERGED_ITS iterations 20
 3 Nonlinear |R| = [33m1.590757e+03[39m
      0 Linear |R| = [32m1.590757e+03[39m
      1 Linear |R| = [33m1.589835e+03[39m
      2 Linear |R| = [33m1.589317e+03[39m
      3 Linear |R| = [33m1.562920e+03[39m
      4 Linear |R| = [33m1.543180e+03[39m
      5 Linear |R| = [33m1.490209e+03[39m
      6 Linear |R| = [33m1.486165e+03[39m
      7 Linear |R| = [33m1.468774e+03[39m
      8 Linear |R| = [33m1.467469e+03[39m
      9 Linear |R| = [33m1.401133e+03[39m
     10 Linear |R| = [33m1.398694e+03[39m
     11 Linear |R| = [33m1.372756e+03[39m
     12 Linear |R| = [33m1.363801e+03[39m
     13 Linear |R| = [33m1.362724e+03[39m
     14 Linear |R| = [33m1.353424e+03[39m
     15 Linear |R| = [33m1.351558e+03[39m
     16 Linear |R| = [33m1.351546e+03[39m
     17 Linear |R| = [33m1.350573e+03[39m
     18 Linear |R| = [33m1.350390e+03[39m
     19 Linear |R| = [33m1.345116e+03[39m
     20 Linear |R| = [33m1.341057e+03[39m
  Linear solve did not converge due to DIVERGED_ITS iterations 20
 4 Nonlinear |R| = [33m1.590757e+03[39m
      0 Linear |R| = [32m1.590757e+03[39m
      1 Linear |R| = [33m1.582475e+03[39m
      2 Linear |R| = [33m1.558796e+03[39m
      3 Linear |R| = [33m1.513648e+03[39m
      4 Linear |R| = [33m1.506658e+03[39m
      5 Linear |R| = [33m1.505824e+03[39m
      6 Linear |R| = [33m1.482796e+03[39m
      7 Linear |R| = [33m1.482610e+03[39m
      8 Linear |R| = [33m1.479222e+03[39m
      9 Linear |R| = [33m1.477104e+03[39m
     10 Linear |R| = [33m1.443809e+03[39m
     11 Linear |R| = [33m1.443195e+03[39m
     12 Linear |R| = [33m1.437243e+03[39m
     13 Linear |R| = [33m1.423872e+03[39m
     14 Linear |R| = [33m1.421873e+03[39m
     15 Linear |R| = [33m1.421022e+03[39m
     16 Linear |R| = [33m1.399538e+03[39m
     17 Linear |R| = [33m1.393969e+03[39m
     18 Linear |R| = [33m1.393766e+03[39m
     19 Linear |R| = [33m1.372984e+03[39m
     20 Linear |R| = [33m1.372983e+03[39m
  Linear solve did not converge due to DIVERGED_ITS iterations 20
 5 Nonlinear |R| = [33m1.590757e+03[39m
      0 Linear |R| = [32m1.590757e+03[39m
      1 Linear |R| = [33m1.590707e+03[39m
      2 Linear |R| = [33m1.554696e+03[39m
      3 Linear |R| = [33m1.516725e+03[39m
      4 Linear |R| = [33m1.512655e+03[39m
      5 Linear |R| = [33m1.506723e+03[39m
      6 Linear |R| = [33m1.471857e+03[39m
      7 Linear |R| = [33m1.465795e+03[39m
      8 Linear |R| = [33m1.465130e+03[39m
      9 Linear |R| = [33m1.425306e+03[39m
     10 Linear |R| = [33m1.424109e+03[39m
     11 Linear |R| = [33m1.413375e+03[39m
     12 Linear |R| = [33m1.411796e+03[39m
     13 Linear |R| = [33m1.406788e+03[39m
     14 Linear |R| = [33m1.405171e+03[39m
     15 Linear |R| = [33m1.363391e+03[39m
     16 Linear |R| = [33m1.359498e+03[39m
     17 Linear |R| = [33m1.353227e+03[39m
     18 Linear |R| = [33m1.348703e+03[39m
     19 Linear |R| = [33m1.337410e+03[39m
     20 Linear |R| = [33m1.335168e+03[39m
  Linear solve did not converge due to DIVERGED_ITS iterations 20
 6 Nonlinear |R| = [33m1.590757e+03[39m
      0 Linear |R| = [32m1.590757e+03[39m
      1 Linear |R| = [33m1.590756e+03[39m
      2 Linear |R| = [33m1.559239e+03[39m
      3 Linear |R| = [33m1.509433e+03[39m
      4 Linear |R| = [33m1.503380e+03[39m
      5 Linear |R| = [33m1.503012e+03[39m
      6 Linear |R| = [33m1.488932e+03[39m
      7 Linear |R| = [33m1.475328e+03[39m
      8 Linear |R| = [33m1.475326e+03[39m
      9 Linear |R| = [33m1.449173e+03[39m
     10 Linear |R| = [33m1.448975e+03[39m
     11 Linear |R| = [33m1.413853e+03[39m
     12 Linear |R| = [33m1.410760e+03[39m
     13 Linear |R| = [33m1.399164e+03[39m
     14 Linear |R| = [33m1.374950e+03[39m
     15 Linear |R| = [33m1.373097e+03[39m
     16 Linear |R| = [33m1.370343e+03[39m
     17 Linear |R| = [33m1.370029e+03[39m
     18 Linear |R| = [33m1.369437e+03[39m
     19 Linear |R| = [33m1.362692e+03[39m
     20 Linear |R| = [33m1.360957e+03[39m
  Linear solve did not converge due to DIVERGED_ITS iterations 20
Nonlinear solve did not converge due to DIVERGED_LINE_SEARCH iterations 6
[31m Solve Did NOT Converge![39m
Aborting as solve did not converge

Solve failed, cutting timestep.

Time Step 2, time = 12.2877, dt = 2.28768
 0 Nonlinear |R| = [32m3.227676e+03[39m
      0 Linear |R| = [32m3.227676e+03[39m
      1 Linear |R| = [32m2.028605e+03[39m
      2 Linear |R| = [33m2.020735e+03[39m
      3 Linear |R| = [33m2.020212e+03[39m
      4 Linear |R| = [33m2.019378e+03[39m
      5 Linear |R| = [33m2.019196e+03[39m
      6 Linear |R| = [33m2.017645e+03[39m
      7 Linear |R| = [33m1.997399e+03[39m
      8 Linear |R| = [33m1.992150e+03[39m
      9 Linear |R| = [33m1.986783e+03[39m
     10 Linear |R| = [33m1.973557e+03[39m
     11 Linear |R| = [33m1.966361e+03[39m
     12 Linear |R| = [33m1.966330e+03[39m
     13 Linear |R| = [33m1.965991e+03[39m
     14 Linear |R| = [33m1.957871e+03[39m
     15 Linear |R| = [33m1.946022e+03[39m
     16 Linear |R| = [33m1.944555e+03[39m
     17 Linear |R| = [33m1.940722e+03[39m
     18 Linear |R| = [33m1.939901e+03[39m
     19 Linear |R| = [33m1.932261e+03[39m
     20 Linear |R| = [33m1.930915e+03[39m
  Linear solve did not converge due to DIVERGED_ITS iterations 20
 1 Nonlinear |R| = [32m2.190600e+03[39m
      0 Linear |R| = [32m2.190600e+03[39m
      1 Linear |R| = [33m2.189891e+03[39m
      2 Linear |R| = [33m2.179506e+03[39m
      3 Linear |R| = [33m2.178296e+03[39m
      4 Linear |R| = [33m2.172768e+03[39m
      5 Linear |R| = [33m2.169637e+03[39m
      6 Linear |R| = [33m2.168933e+03[39m
      7 Linear |R| = [33m2.166948e+03[39m
      8 Linear |R| = [33m2.165066e+03[39m
      9 Linear |R| = [33m2.162595e+03[39m
     10 Linear |R| = [33m2.162419e+03[39m
     11 Linear |R| = [33m2.149498e+03[39m
     12 Linear |R| = [33m2.147692e+03[39m
     13 Linear |R| = [33m2.147154e+03[39m
     14 Linear |R| = [33m2.111447e+03[39m
     15 Linear |R| = [33m2.102033e+03[39m
     16 Linear |R| = [33m2.101619e+03[39m
     17 Linear |R| = [33m2.101426e+03[39m
     18 Linear |R| = [33m2.088373e+03[39m
     19 Linear |R| = [33m2.066587e+03[39m
     20 Linear |R| = [33m2.064698e+03[39m
  Linear solve did not converge due to DIVERGED_ITS iterations 20
 2 Nonlinear |R| = [33m2.190600e+03[39m
      0 Linear |R| = [32m2.190600e+03[39m
      1 Linear |R| = [33m2.140164e+03[39m
      2 Linear |R| = [33m2.124711e+03[39m
      3 Linear |R| = [33m2.123292e+03[39m
      4 Linear |R| = [33m2.112747e+03[39m
      5 Linear |R| = [33m2.106993e+03[39m
      6 Linear |R| = [33m2.106829e+03[39m
      7 Linear |R| = [33m2.104664e+03[39m
      8 Linear |R| = [33m2.101832e+03[39m
      9 Linear |R| = [33m2.085758e+03[39m
     10 Linear |R| = [33m2.077744e+03[39m
     11 Linear |R| = [33m2.075605e+03[39m
     12 Linear |R| = [33m2.071488e+03[39m
     13 Linear |R| = [33m2.071355e+03[39m
     14 Linear |R| = [33m2.069479e+03[39m
     15 Linear |R| = [33m2.051638e+03[39m
     16 Linear |R| = [33m2.050469e+03[39m
     17 Linear |R| = [33m2.049295e+03[39m
     18 Linear |R| = [33m2.047784e+03[39m
     19 Linear |R| = [33m2.046324e+03[39m
     20 Linear |R| = [33m2.042814e+03[39m
  Linear solve did not converge due to DIVERGED_ITS iterations 20
 3 Nonlinear |R| = [33m2.190600e+03[39m
      0 Linear |R| = [32m2.190600e+03[39m
      1 Linear |R| = [33m2.176846e+03[39m
      2 Linear |R| = [33m2.175026e+03[39m
      3 Linear |R| = [33m2.085779e+03[39m
      4 Linear |R| = [33m2.085734e+03[39m
      5 Linear |R| = [33m2.078746e+03[39m
      6 Linear |R| = [33m2.077987e+03[39m
      7 Linear |R| = [33m2.075809e+03[39m
      8 Linear |R| = [33m2.065496e+03[39m
      9 Linear |R| = [33m2.064248e+03[39m
     10 Linear |R| = [33m2.063033e+03[39m
     11 Linear |R| = [33m2.063032e+03[39m
     12 Linear |R| = [33m2.062624e+03[39m
     13 Linear |R| = [33m2.061225e+03[39m
     14 Linear |R| = [33m2.060079e+03[39m
     15 Linear |R| = [33m2.059539e+03[39m
     16 Linear |R| = [33m2.055841e+03[39m
     17 Linear |R| = [33m2.055839e+03[39m
     18 Linear |R| = [33m2.053537e+03[39m
     19 Linear |R| = [33m2.050803e+03[39m
     20 Linear |R| = [33m2.042448e+03[39m
  Linear solve did not converge due to DIVERGED_ITS iterations 20
 4 Nonlinear |R| = [33m2.190549e+03[39m
      0 Linear |R| = [32m2.190549e+03[39m
      1 Linear |R| = [33m2.183240e+03[39m
      2 Linear |R| = [33m2.180936e+03[39m
      3 Linear |R| = [33m2.167023e+03[39m
      4 Linear |R| = [33m2.153019e+03[39m
      5 Linear |R| = [33m2.138830e+03[39m
      6 Linear |R| = [33m2.133845e+03[39m
      7 Linear |R| = [33m2.133250e+03[39m
      8 Linear |R| = [33m2.104565e+03[39m
      9 Linear |R| = [33m2.092718e+03[39m
     10 Linear |R| = [33m2.085504e+03[39m
     11 Linear |R| = [33m2.083000e+03[39m
     12 Linear |R| = [33m2.078382e+03[39m
     13 Linear |R| = [33m2.026468e+03[39m
     14 Linear |R| = [33m2.024015e+03[39m
     15 Linear |R| = [33m1.957192e+03[39m
     16 Linear |R| = [33m1.953362e+03[39m
     17 Linear |R| = [33m1.949422e+03[39m
     18 Linear |R| = [33m1.948542e+03[39m
     19 Linear |R| = [33m1.947355e+03[39m
     20 Linear |R| = [33m1.946901e+03[39m
  Linear solve did not converge due to DIVERGED_ITS iterations 20
 5 Nonlinear |R| = [33m2.190044e+03[39m
      0 Linear |R| = [32m2.190044e+03[39m
      1 Linear |R| = [33m2.183319e+03[39m
      2 Linear |R| = [33m2.183311e+03[39m
      3 Linear |R| = [33m2.162779e+03[39m
      4 Linear |R| = [33m2.162478e+03[39m
      5 Linear |R| = [33m2.162447e+03[39m
      6 Linear |R| = [33m2.162030e+03[39m
      7 Linear |R| = [33m2.157129e+03[39m
      8 Linear |R| = [33m2.127909e+03[39m
      9 Linear |R| = [33m2.120919e+03[39m
     10 Linear |R| = [33m2.118566e+03[39m
     11 Linear |R| = [33m2.103737e+03[39m
     12 Linear |R| = [33m2.093876e+03[39m
     13 Linear |R| = [33m2.093870e+03[39m
     14 Linear |R| = [33m2.093586e+03[39m
     15 Linear |R| = [33m2.092967e+03[39m
     16 Linear |R| = [33m2.092172e+03[39m
     17 Linear |R| = [33m2.090466e+03[39m
     18 Linear |R| = [33m2.089990e+03[39m
     19 Linear |R| = [33m2.083711e+03[39m
     20 Linear |R| = [33m2.079344e+03[39m
  Linear solve did not converge due to DIVERGED_ITS iterations 20
 6 Nonlinear |R| = [33m2.190044e+03[39m
      0 Linear |R| = [32m2.190044e+03[39m
      1 Linear |R| = [33m2.189426e+03[39m
      2 Linear |R| = [33m2.188265e+03[39m
      3 Linear |R| = [33m2.184606e+03[39m
      4 Linear |R| = [33m2.183247e+03[39m
      5 Linear |R| = [33m2.168793e+03[39m
      6 Linear |R| = [33m2.162044e+03[39m
      7 Linear |R| = [33m2.132726e+03[39m
      8 Linear |R| = [33m2.122470e+03[39m
      9 Linear |R| = [33m2.122379e+03[39m
     10 Linear |R| = [33m2.121438e+03[39m
     11 Linear |R| = [33m2.114567e+03[39m
     12 Linear |R| = [33m2.108461e+03[39m
     13 Linear |R| = [33m2.108332e+03[39m
     14 Linear |R| = [33m2.106507e+03[39m
     15 Linear |R| = [33m2.105150e+03[39m
     16 Linear |R| = [33m2.101398e+03[39m
     17 Linear |R| = [33m2.101140e+03[39m
     18 Linear |R| = [33m2.087420e+03[39m
     19 Linear |R| = [33m2.083141e+03[39m
     20 Linear |R| = [33m2.071666e+03[39m
  Linear solve did not converge due to DIVERGED_ITS iterations 20
 7 Nonlinear |R| = [33m2.190043e+03[39m
      0 Linear |R| = [32m2.190043e+03[39m
      1 Linear |R| = [33m2.182004e+03[39m
      2 Linear |R| = [33m2.176465e+03[39m
      3 Linear |R| = [33m2.166810e+03[39m
      4 Linear |R| = [33m2.141406e+03[39m
      5 Linear |R| = [33m2.131274e+03[39m
      6 Linear |R| = [33m2.130827e+03[39m
      7 Linear |R| = [33m2.130412e+03[39m
      8 Linear |R| = [33m2.120713e+03[39m
      9 Linear |R| = [33m2.112458e+03[39m
     10 Linear |R| = [33m2.096990e+03[39m
     11 Linear |R| = [33m2.096948e+03[39m
     12 Linear |R| = [33m2.084147e+03[39m
     13 Linear |R| = [33m2.083274e+03[39m
     14 Linear |R| = [33m2.076116e+03[39m
     15 Linear |R| = [33m2.076075e+03[39m
     16 Linear |R| = [33m2.073771e+03[39m
     17 Linear |R| = [33m2.051087e+03[39m
     18 Linear |R| = [33m2.051052e+03[39m
     19 Linear |R| = [33m2.049237e+03[39m
     20 Linear |R| = [33m2.028951e+03[39m
  Linear solve did not converge due to DIVERGED_ITS iterations 20
 8 Nonlinear |R| = [33m2.190043e+03[39m
      0 Linear |R| = [32m2.190043e+03[39m
      1 Linear |R| = [33m2.188709e+03[39m
      2 Linear |R| = [33m2.166591e+03[39m
      3 Linear |R| = [33m2.165960e+03[39m
      4 Linear |R| = [33m2.159042e+03[39m
      5 Linear |R| = [33m2.149070e+03[39m
      6 Linear |R| = [33m2.148806e+03[39m
      7 Linear |R| = [33m2.132715e+03[39m
      8 Linear |R| = [33m2.130473e+03[39m
      9 Linear |R| = [33m2.123581e+03[39m
     10 Linear |R| = [33m2.100701e+03[39m
     11 Linear |R| = [33m2.086365e+03[39m
     12 Linear |R| = [33m2.077979e+03[39m
     13 Linear |R| = [33m2.075844e+03[39m
     14 Linear |R| = [33m2.075843e+03[39m
     15 Linear |R| = [33m2.067833e+03[39m
     16 Linear |R| = [33m2.067290e+03[39m
     17 Linear |R| = [33m2.063045e+03[39m
     18 Linear |R| = [33m2.061517e+03[39m
     19 Linear |R| = [33m2.040678e+03[39m
     20 Linear |R| = [33m2.040676e+03[39m
  Linear solve did not converge due to DIVERGED_ITS iterations 20
 9 Nonlinear |R| = [33m2.190043e+03[39m
      0 Linear |R| = [32m2.190043e+03[39m
      1 Linear |R| = [33m2.166927e+03[39m
      2 Linear |R| = [33m2.165805e+03[39m
      3 Linear |R| = [33m2.142877e+03[39m
      4 Linear |R| = [33m2.142058e+03[39m
      5 Linear |R| = [33m2.139790e+03[39m
      6 Linear |R| = [33m2.135604e+03[39m
      7 Linear |R| = [33m2.129885e+03[39m
      8 Linear |R| = [33m2.129851e+03[39m
      9 Linear |R| = [33m2.114032e+03[39m
     10 Linear |R| = [33m2.113824e+03[39m
     11 Linear |R| = [33m2.112236e+03[39m
     12 Linear |R| = [33m2.109655e+03[39m
     13 Linear |R| = [33m2.108976e+03[39m
     14 Linear |R| = [33m2.108367e+03[39m
     15 Linear |R| = [33m2.108366e+03[39m
     16 Linear |R| = [33m2.103573e+03[39m
     17 Linear |R| = [33m2.086519e+03[39m
     18 Linear |R| = [33m2.079243e+03[39m
     19 Linear |R| = [33m2.070371e+03[39m
     20 Linear |R| = [33m2.060295e+03[39m
  Linear solve did not converge due to DIVERGED_ITS iterations 20
Nonlinear solve did not converge due to DIVERGED_LINE_SEARCH iterations 9
[31m Solve Did NOT Converge![39m
Aborting as solve did not converge

Solve failed, cutting timestep.

Time Step 2, time = 12.0589, dt = 2.05891
 0 Nonlinear |R| = [32m3.227676e+03[39m
      0 Linear |R| = [32m3.227676e+03[39m
      1 Linear |R| = [32m2.030925e+03[39m
      2 Linear |R| = [33m2.004172e+03[39m
      3 Linear |R| = [33m2.003990e+03[39m
      4 Linear |R| = [33m2.000894e+03[39m
      5 Linear |R| = [33m1.990657e+03[39m
      6 Linear |R| = [33m1.984500e+03[39m
      7 Linear |R| = [33m1.972230e+03[39m
      8 Linear |R| = [33m1.970965e+03[39m
      9 Linear |R| = [33m1.967876e+03[39m
     10 Linear |R| = [33m1.959013e+03[39m
     11 Linear |R| = [33m1.958276e+03[39m
     12 Linear |R| = [33m1.947126e+03[39m
     13 Linear |R| = [33m1.903094e+03[39m
     14 Linear |R| = [33m1.901209e+03[39m
     15 Linear |R| = [33m1.898225e+03[39m
     16 Linear |R| = [33m1.865277e+03[39m
     17 Linear |R| = [33m1.865252e+03[39m
     18 Linear |R| = [33m1.858223e+03[39m
     19 Linear |R| = [33m1.855706e+03[39m
     20 Linear |R| = [33m1.840864e+03[39m
  Linear solve did not converge due to DIVERGED_ITS iterations 20
 1 Nonlinear |R| = [32m2.650595e+03[39m
      0 Linear |R| = [32m2.650595e+03[39m
      1 Linear |R| = [33m2.639100e+03[39m
      2 Linear |R| = [33m2.618672e+03[39m
      3 Linear |R| = [33m2.614393e+03[39m
      4 Linear |R| = [33m2.614375e+03[39m
      5 Linear |R| = [33m2.611653e+03[39m
      6 Linear |R| = [33m2.579605e+03[39m
      7 Linear |R| = [33m2.579409e+03[39m
      8 Linear |R| = [33m2.504018e+03[39m
      9 Linear |R| = [33m2.503463e+03[39m
     10 Linear |R| = [33m2.490658e+03[39m
     11 Linear |R| = [33m2.452198e+03[39m
     12 Linear |R| = [33m2.366196e+03[39m
     13 Linear |R| = [33m2.366127e+03[39m
     14 Linear |R| = [33m2.347787e+03[39m
     15 Linear |R| = [33m2.298511e+03[39m
     16 Linear |R| = [33m2.298420e+03[39m
     17 Linear |R| = [33m2.269261e+03[39m
     18 Linear |R| = [33m2.267906e+03[39m
     19 Linear |R| = [33m2.239656e+03[39m
     20 Linear |R| = [33m2.207740e+03[39m
  Linear solve did not converge due to DIVERGED_ITS iterations 20
 2 Nonlinear |R| = [33m2.650594e+03[39m
      0 Linear |R| = [32m2.650594e+03[39m
      1 Linear |R| = [33m2.644727e+03[39m
      2 Linear |R| = [33m2.613994e+03[39m
      3 Linear |R| = [33m2.611464e+03[39m
      4 Linear |R| = [33m2.578552e+03[39m
      5 Linear |R| = [33m2.576786e+03[39m
      6 Linear |R| = [33m2.567414e+03[39m
      7 Linear |R| = [33m2.559023e+03[39m
      8 Linear |R| = [33m2.553491e+03[39m
      9 Linear |R| = [33m2.551218e+03[39m
     10 Linear |R| = [33m2.515237e+03[39m
     11 Linear |R| = [33m2.472549e+03[39m
     12 Linear |R| = [33m2.472516e+03[39m
     13 Linear |R| = [33m2.463057e+03[39m
     14 Linear |R| = [33m2.453395e+03[39m
     15 Linear |R| = [33m2.438179e+03[39m
     16 Linear |R| = [33m2.430609e+03[39m
     17 Linear |R| = [33m2.430607e+03[39m
     18 Linear |R| = [33m2.428594e+03[39m
     19 Linear |R| = [33m2.409127e+03[39m
     20 Linear |R| = [33m2.399841e+03[39m
  Linear solve did not converge due to DIVERGED_ITS iterations 20
 3 Nonlinear |R| = [33m2.650594e+03[39m
      0 Linear |R| = [32m2.650594e+03[39m
      1 Linear |R| = [33m2.614315e+03[39m
      2 Linear |R| = [33m2.612374e+03[39m
      3 Linear |R| = [33m2.573269e+03[39m
      4 Linear |R| = [33m2.570394e+03[39m
      5 Linear |R| = [33m2.555124e+03[39m
      6 Linear |R| = [33m2.551328e+03[39m
      7 Linear |R| = [33m2.513083e+03[39m
      8 Linear |R| = [33m2.493242e+03[39m
      9 Linear |R| = [33m2.396432e+03[39m
     10 Linear |R| = [33m2.387962e+03[39m
     11 Linear |R| = [33m2.384024e+03[39m
     12 Linear |R| = [33m2.364311e+03[39m
     13 Linear |R| = [33m2.346637e+03[39m
     14 Linear |R| = [33m2.346282e+03[39m
     15 Linear |R| = [33m2.335687e+03[39m
     16 Linear |R| = [33m2.334782e+03[39m
     17 Linear |R| = [33m2.321106e+03[39m
     18 Linear |R| = [33m2.302351e+03[39m
     19 Linear |R| = [33m2.286393e+03[39m
     20 Linear |R| = [33m2.280011e+03[39m
  Linear solve did not converge due to DIVERGED_ITS iterations 20
 4 Nonlinear |R| = [33m2.650594e+03[39m
      0 Linear |R| = [32m2.650594e+03[39m
      1 Linear |R| = [33m2.629934e+03[39m
      2 Linear |R| = [33m2.627407e+03[39m
      3 Linear |R| = [33m2.555380e+03[39m
      4 Linear |R| = [33m2.555316e+03[39m
      5 Linear |R| = [33m2.554806e+03[39m
      6 Linear |R| = [33m2.542382e+03[39m
      7 Linear |R| = [33m2.530169e+03[39m
      8 Linear |R| = [33m2.528890e+03[39m
      9 Linear |R| = [33m2.499066e+03[39m
     10 Linear |R| = [33m2.493317e+03[39m
     11 Linear |R| = [33m2.490120e+03[39m
     12 Linear |R| = [33m2.448440e+03[39m
     13 Linear |R| = [33m2.416019e+03[39m
     14 Linear |R| = [33m2.384423e+03[39m
     15 Linear |R| = [33m2.384328e+03[39m
     16 Linear |R| = [33m2.371215e+03[39m
     17 Linear |R| = [33m2.356324e+03[39m
     18 Linear |R| = [33m2.353340e+03[39m
     19 Linear |R| = [33m2.344323e+03[39m
     20 Linear |R| = [33m2.344297e+03[39m
  Linear solve did not converge due to DIVERGED_ITS iterations 20
Nonlinear solve did not converge due to DIVERGED_LINE_SEARCH iterations 4
[31m Solve Did NOT Converge![39m
Aborting as solve did not converge

Solve failed, cutting timestep.

Time Step 2, time = 11.853, dt = 1.85302
 0 Nonlinear |R| = [32m3.227676e+03[39m
      0 Linear |R| = [32m3.227676e+03[39m
      1 Linear |R| = [32m2.253731e+03[39m
      2 Linear |R| = [33m2.253681e+03[39m
      3 Linear |R| = [33m2.142920e+03[39m
      4 Linear |R| = [33m2.110374e+03[39m
      5 Linear |R| = [33m2.086737e+03[39m
      6 Linear |R| = [33m2.079927e+03[39m
      7 Linear |R| = [33m2.056979e+03[39m
      8 Linear |R| = [33m2.051721e+03[39m
      9 Linear |R| = [33m2.050052e+03[39m
     10 Linear |R| = [33m2.047913e+03[39m
     11 Linear |R| = [33m1.995141e+03[39m
     12 Linear |R| = [33m1.984927e+03[39m
     13 Linear |R| = [33m1.983686e+03[39m
     14 Linear |R| = [33m1.970980e+03[39m
     15 Linear |R| = [33m1.970205e+03[39m
     16 Linear |R| = [33m1.969137e+03[39m
     17 Linear |R| = [33m1.967790e+03[39m
     18 Linear |R| = [33m1.963964e+03[39m
     19 Linear |R| = [33m1.953484e+03[39m
     20 Linear |R| = [33m1.950874e+03[39m
  Linear solve did not converge due to DIVERGED_ITS iterations 20
 1 Nonlinear |R| = [32m2.771558e+03[39m
      0 Linear |R| = [32m2.771558e+03[39m
      1 Linear |R| = [33m2.770706e+03[39m
      2 Linear |R| = [32m2.627239e+03[39m
      3 Linear |R| = [33m2.594878e+03[39m
      4 Linear |R| = [33m2.594053e+03[39m
      5 Linear |R| = [33m2.499774e+03[39m
      6 Linear |R| = [33m2.498446e+03[39m
      7 Linear |R| = [33m2.498403e+03[39m
      8 Linear |R| = [33m2.420766e+03[39m
      9 Linear |R| = [33m2.385648e+03[39m
     10 Linear |R| = [33m2.385209e+03[39m
     11 Linear |R| = [33m2.380331e+03[39m
     12 Linear |R| = [33m2.379692e+03[39m
     13 Linear |R| = [33m2.359853e+03[39m
     14 Linear |R| = [33m2.355235e+03[39m
     15 Linear |R| = [33m2.341625e+03[39m
     16 Linear |R| = [33m2.330773e+03[39m
     17 Linear |R| = [33m2.325835e+03[39m
     18 Linear |R| = [33m2.325553e+03[39m
     19 Linear |R| = [33m2.309120e+03[39m
     20 Linear |R| = [33m2.303235e+03[39m
  Linear solve did not converge due to DIVERGED_ITS iterations 20
Nonlinear solve did not converge due to DIVERGED_LINE_SEARCH iterations 1
[31m Solve Did NOT Converge![39m
Aborting as solve did not converge

Solve failed, cutting timestep.

Time Step 2, time = 11.6677, dt = 1.66772
 0 Nonlinear |R| = [32m3.227676e+03[39m
      0 Linear |R| = [32m3.227676e+03[39m
      1 Linear |R| = [32m2.232298e+03[39m
      2 Linear |R| = [33m2.230702e+03[39m
      3 Linear |R| = [33m2.165729e+03[39m
      4 Linear |R| = [33m2.062323e+03[39m
      5 Linear |R| = [33m2.060395e+03[39m
      6 Linear |R| = [33m2.023422e+03[39m
      7 Linear |R| = [33m2.021937e+03[39m
      8 Linear |R| = [33m2.016287e+03[39m
      9 Linear |R| = [33m2.006451e+03[39m
     10 Linear |R| = [33m1.998728e+03[39m
     11 Linear |R| = [33m1.992265e+03[39m
     12 Linear |R| = [33m1.991648e+03[39m
     13 Linear |R| = [33m1.990641e+03[39m
     14 Linear |R| = [33m1.990187e+03[39m
     15 Linear |R| = [33m1.985823e+03[39m
     16 Linear |R| = [33m1.982511e+03[39m
     17 Linear |R| = [33m1.980555e+03[39m
     18 Linear |R| = [33m1.947452e+03[39m
     19 Linear |R| = [33m1.947401e+03[39m
     20 Linear |R| = [33m1.929054e+03[39m
  Linear solve did not converge due to DIVERGED_ITS iterations 20
 1 Nonlinear |R| = [32m2.431128e+03[39m
      0 Linear |R| = [32m2.431128e+03[39m
      1 Linear |R| = [33m2.427881e+03[39m
      2 Linear |R| = [33m2.309938e+03[39m
      3 Linear |R| = [33m2.264545e+03[39m
      4 Linear |R| = [33m2.264520e+03[39m
      5 Linear |R| = [33m2.261363e+03[39m
      6 Linear |R| = [33m2.242291e+03[39m
      7 Linear |R| = [33m2.239069e+03[39m
      8 Linear |R| = [33m2.237741e+03[39m
      9 Linear |R| = [33m2.195372e+03[39m
     10 Linear |R| = [33m2.191411e+03[39m
     11 Linear |R| = [33m2.190110e+03[39m
     12 Linear |R| = [33m2.187289e+03[39m
     13 Linear |R| = [33m2.187122e+03[39m
     14 Linear |R| = [33m2.181517e+03[39m
     15 Linear |R| = [33m2.124052e+03[39m
     16 Linear |R| = [33m2.116600e+03[39m
     17 Linear |R| = [33m2.098069e+03[39m
     18 Linear |R| = [33m2.098050e+03[39m
     19 Linear |R| = [33m2.090121e+03[39m
     20 Linear |R| = [33m2.085896e+03[39m
  Linear solve did not converge due to DIVERGED_ITS iterations 20
 2 Nonlinear |R| = [33m2.431128e+03[39m
      0 Linear |R| = [32m2.431128e+03[39m
      1 Linear |R| = [33m2.428564e+03[39m
      2 Linear |R| = [33m2.406219e+03[39m
      3 Linear |R| = [32m2.276992e+03[39m
      4 Linear |R| = [33m2.239277e+03[39m
      5 Linear |R| = [33m2.225054e+03[39m
      6 Linear |R| = [33m2.203766e+03[39m
      7 Linear |R| = [33m2.198311e+03[39m
      8 Linear |R| = [33m2.178268e+03[39m
      9 Linear |R| = [33m2.178206e+03[39m
     10 Linear |R| = [33m2.127706e+03[39m
     11 Linear |R| = [33m2.116496e+03[39m
     12 Linear |R| = [33m2.107088e+03[39m
     13 Linear |R| = [33m2.099592e+03[39m
     14 Linear |R| = [33m2.078396e+03[39m
     15 Linear |R| = [33m2.076597e+03[39m
     16 Linear |R| = [33m2.070150e+03[39m
     17 Linear |R| = [33m2.057401e+03[39m
     18 Linear |R| = [33m2.056129e+03[39m
     19 Linear |R| = [33m2.049692e+03[39m
     20 Linear |R| = [33m2.044510e+03[39m
  Linear solve did not converge due to DIVERGED_ITS iterations 20
 3 Nonlinear |R| = [33m2.431128e+03[39m
      0 Linear |R| = [32m2.431128e+03[39m
      1 Linear |R| = [33m2.431112e+03[39m
      2 Linear |R| = [33m2.409200e+03[39m
      3 Linear |R| = [33m2.402818e+03[39m
      4 Linear |R| = [33m2.316888e+03[39m
      5 Linear |R| = [33m2.315559e+03[39m
      6 Linear |R| = [33m2.313826e+03[39m
      7 Linear |R| = [33m2.255204e+03[39m
      8 Linear |R| = [33m2.252654e+03[39m
      9 Linear |R| = [33m2.252090e+03[39m
     10 Linear |R| = [33m2.251585e+03[39m
     11 Linear |R| = [33m2.250864e+03[39m
     12 Linear |R| = [33m2.225762e+03[39m
     13 Linear |R| = [33m2.199213e+03[39m
     14 Linear |R| = [33m2.197599e+03[39m
     15 Linear |R| = [33m2.157959e+03[39m
     16 Linear |R| = [33m2.157359e+03[39m
     17 Linear |R| = [33m2.154956e+03[39m
     18 Linear |R| = [33m2.132042e+03[39m
     19 Linear |R| = [33m2.124171e+03[39m
     20 Linear |R| = [33m2.124171e+03[39m
  Linear solve did not converge due to DIVERGED_ITS iterations 20
 4 Nonlinear |R| = [33m2.431128e+03[39m
      0 Linear |R| = [32m2.431128e+03[39m
      1 Linear |R| = [33m2.428363e+03[39m
      2 Linear |R| = [32m2.240932e+03[39m
      3 Linear |R| = [33m2.157296e+03[39m
      4 Linear |R| = [33m2.154076e+03[39m
      5 Linear |R| = [33m2.153629e+03[39m
      6 Linear |R| = [33m2.142072e+03[39m
      7 Linear |R| = [33m2.141655e+03[39m
      8 Linear |R| = [33m2.141631e+03[39m
      9 Linear |R| = [33m2.138823e+03[39m
     10 Linear |R| = [33m2.138286e+03[39m
     11 Linear |R| = [33m2.137651e+03[39m
     12 Linear |R| = [33m2.108426e+03[39m
     13 Linear |R| = [33m2.107390e+03[39m
     14 Linear |R| = [33m2.106731e+03[39m
     15 Linear |R| = [33m2.102555e+03[39m
     16 Linear |R| = [33m2.097387e+03[39m
     17 Linear |R| = [33m2.094346e+03[39m
     18 Linear |R| = [33m2.089705e+03[39m
     19 Linear |R| = [33m2.065190e+03[39m
     20 Linear |R| = [33m2.034244e+03[39m
  Linear solve did not converge due to DIVERGED_ITS iterations 20
 5 Nonlinear |R| = [33m2.431128e+03[39m
      0 Linear |R| = [32m2.431128e+03[39m
      1 Linear |R| = [33m2.430493e+03[39m
      2 Linear |R| = [33m2.425225e+03[39m
      3 Linear |R| = [32m2.230025e+03[39m
      4 Linear |R| = [33m2.228832e+03[39m
      5 Linear |R| = [33m2.211592e+03[39m
      6 Linear |R| = [33m2.209727e+03[39m
      7 Linear |R| = [33m2.207348e+03[39m
      8 Linear |R| = [33m2.205475e+03[39m
      9 Linear |R| = [33m2.200215e+03[39m
     10 Linear |R| = [33m2.197468e+03[39m
     11 Linear |R| = [33m2.197195e+03[39m
     12 Linear |R| = [33m2.194226e+03[39m
     13 Linear |R| = [33m2.178303e+03[39m
     14 Linear |R| = [33m2.178290e+03[39m
     15 Linear |R| = [33m2.171203e+03[39m
     16 Linear |R| = [33m2.170815e+03[39m
     17 Linear |R| = [33m2.146415e+03[39m
     18 Linear |R| = [33m2.110462e+03[39m
     19 Linear |R| = [33m2.072698e+03[39m
     20 Linear |R| = [33m2.071148e+03[39m
  Linear solve did not converge due to DIVERGED_ITS iterations 20
Nonlinear solve did not converge due to DIVERGED_LINE_SEARCH iterations 5
[31m Solve Did NOT Converge![39m
Aborting as solve did not converge

Solve failed, cutting timestep.

Time Step 2, time = 11.5009, dt = 1.50095
 0 Nonlinear |R| = [32m3.227676e+03[39m
      0 Linear |R| = [32m3.227676e+03[39m
      1 Linear |R| = [32m2.113919e+03[39m
      2 Linear |R| = [33m2.113823e+03[39m
      3 Linear |R| = [33m2.063459e+03[39m
      4 Linear |R| = [33m2.059158e+03[39m
      5 Linear |R| = [33m2.057205e+03[39m
      6 Linear |R| = [33m2.056008e+03[39m
      7 Linear |R| = [33m1.999087e+03[39m
      8 Linear |R| = [33m1.999041e+03[39m
      9 Linear |R| = [33m1.985928e+03[39m
     10 Linear |R| = [33m1.977638e+03[39m
     11 Linear |R| = [33m1.975926e+03[39m
     12 Linear |R| = [33m1.967123e+03[39m
     13 Linear |R| = [33m1.966652e+03[39m
     14 Linear |R| = [33m1.934115e+03[39m
     15 Linear |R| = [33m1.934008e+03[39m
     16 Linear |R| = [33m1.933387e+03[39m
     17 Linear |R| = [33m1.923421e+03[39m
     18 Linear |R| = [33m1.915463e+03[39m
     19 Linear |R| = [33m1.915241e+03[39m
     20 Linear |R| = [33m1.867803e+03[39m
  Linear solve did not converge due to DIVERGED_ITS iterations 20
 1 Nonlinear |R| = [32m1.957532e+03[39m
      0 Linear |R| = [32m1.957532e+03[39m
      1 Linear |R| = [33m1.956960e+03[39m
      2 Linear |R| = [33m1.879130e+03[39m
      3 Linear |R| = [33m1.840441e+03[39m
      4 Linear |R| = [33m1.839957e+03[39m
      5 Linear |R| = [33m1.815835e+03[39m
      6 Linear |R| = [33m1.815502e+03[39m
      7 Linear |R| = [33m1.796840e+03[39m
      8 Linear |R| = [33m1.790241e+03[39m
      9 Linear |R| = [33m1.785023e+03[39m
     10 Linear |R| = [32m1.691695e+03[39m
     11 Linear |R| = [33m1.690988e+03[39m
     12 Linear |R| = [33m1.688832e+03[39m
     13 Linear |R| = [33m1.682197e+03[39m
     14 Linear |R| = [33m1.639034e+03[39m
     15 Linear |R| = [33m1.604975e+03[39m
     16 Linear |R| = [33m1.581775e+03[39m
     17 Linear |R| = [33m1.580239e+03[39m
     18 Linear |R| = [33m1.578694e+03[39m
     19 Linear |R| = [33m1.572968e+03[39m
     20 Linear |R| = [33m1.572474e+03[39m
  Linear solve did not converge due to DIVERGED_ITS iterations 20
 2 Nonlinear |R| = [33m1.957532e+03[39m
      0 Linear |R| = [32m1.957532e+03[39m
      1 Linear |R| = [33m1.957435e+03[39m
      2 Linear |R| = [33m1.912773e+03[39m
      3 Linear |R| = [33m1.912773e+03[39m
      4 Linear |R| = [33m1.909643e+03[39m
      5 Linear |R| = [33m1.883113e+03[39m
      6 Linear |R| = [33m1.878248e+03[39m
      7 Linear |R| = [33m1.867273e+03[39m
      8 Linear |R| = [33m1.840929e+03[39m
      9 Linear |R| = [33m1.812194e+03[39m
     10 Linear |R| = [33m1.807578e+03[39m
     11 Linear |R| = [33m1.807342e+03[39m
     12 Linear |R| = [33m1.805412e+03[39m
     13 Linear |R| = [33m1.751689e+03[39m
     14 Linear |R| = [33m1.727390e+03[39m
     15 Linear |R| = [33m1.674978e+03[39m
     16 Linear |R| = [33m1.671980e+03[39m
     17 Linear |R| = [33m1.668287e+03[39m
     18 Linear |R| = [33m1.668269e+03[39m
     19 Linear |R| = [33m1.666963e+03[39m
     20 Linear |R| = [33m1.662128e+03[39m
  Linear solve did not converge due to DIVERGED_ITS iterations 20
Nonlinear solve did not converge due to DIVERGED_LINE_SEARCH iterations 2
[31m Solve Did NOT Converge![39m
Aborting as solve did not converge

Solve failed, cutting timestep.

Time Step 2, time = 11.3509, dt = 1.35085
 0 Nonlinear |R| = [32m3.227676e+03[39m
      0 Linear |R| = [32m3.227676e+03[39m
      1 Linear |R| = [32m2.027863e+03[39m
      2 Linear |R| = [33m2.027747e+03[39m
      3 Linear |R| = [33m1.993959e+03[39m
      4 Linear |R| = [33m1.993910e+03[39m
      5 Linear |R| = [33m1.984293e+03[39m
      6 Linear |R| = [33m1.977028e+03[39m
      7 Linear |R| = [33m1.976453e+03[39m
      8 Linear |R| = [33m1.975032e+03[39m
      9 Linear |R| = [33m1.967991e+03[39m
     10 Linear |R| = [33m1.960022e+03[39m
     11 Linear |R| = [33m1.958118e+03[39m
     12 Linear |R| = [33m1.958102e+03[39m
     13 Linear |R| = [33m1.957910e+03[39m
     14 Linear |R| = [33m1.954476e+03[39m
     15 Linear |R| = [33m1.953402e+03[39m
     16 Linear |R| = [33m1.952390e+03[39m
     17 Linear |R| = [33m1.952366e+03[39m
     18 Linear |R| = [33m1.952354e+03[39m
     19 Linear |R| = [33m1.951660e+03[39m
     20 Linear |R| = [33m1.941689e+03[39m
  Linear solve did not converge due to DIVERGED_ITS iterations 20
 1 Nonlinear |R| = [32m2.432225e+03[39m
      0 Linear |R| = [32m2.432225e+03[39m
      1 Linear |R| = [33m2.429739e+03[39m
      2 Linear |R| = [33m2.425679e+03[39m
      3 Linear |R| = [33m2.373444e+03[39m
      4 Linear |R| = [33m2.372511e+03[39m
      5 Linear |R| = [33m2.372099e+03[39m
      6 Linear |R| = [33m2.371962e+03[39m
      7 Linear |R| = [32m2.224646e+03[39m
      8 Linear |R| = [33m2.223958e+03[39m
      9 Linear |R| = [33m2.208078e+03[39m
     10 Linear |R| = [33m2.173648e+03[39m
     11 Linear |R| = [33m2.133561e+03[39m
     12 Linear |R| = [33m2.096046e+03[39m
     13 Linear |R| = [33m2.049212e+03[39m
     14 Linear |R| = [33m2.041830e+03[39m
     15 Linear |R| = [33m2.026724e+03[39m
     16 Linear |R| = [33m2.021834e+03[39m
     17 Linear |R| = [33m2.020801e+03[39m
     18 Linear |R| = [33m1.995904e+03[39m
     19 Linear |R| = [33m1.995792e+03[39m
     20 Linear |R| = [33m1.994448e+03[39m
  Linear solve did not converge due to DIVERGED_ITS iterations 20
 2 Nonlinear |R| = [33m2.432225e+03[39m
      0 Linear |R| = [32m2.432225e+03[39m
      1 Linear |R| = [33m2.423361e+03[39m
      2 Linear |R| = [33m2.368337e+03[39m
      3 Linear |R| = [33m2.366265e+03[39m
      4 Linear |R| = [33m2.365657e+03[39m
      5 Linear |R| = [33m2.320214e+03[39m
      6 Linear |R| = [33m2.320057e+03[39m
      7 Linear |R| = [33m2.268982e+03[39m
      8 Linear |R| = [33m2.264184e+03[39m
      9 Linear |R| = [33m2.264152e+03[39m
     10 Linear |R| = [33m2.264005e+03[39m
     11 Linear |R| = [33m2.194801e+03[39m
     12 Linear |R| = [32m2.080281e+03[39m
     13 Linear |R| = [33m2.079387e+03[39m
     14 Linear |R| = [33m2.070087e+03[39m
     15 Linear |R| = [33m2.068014e+03[39m
     16 Linear |R| = [33m2.062663e+03[39m
     17 Linear |R| = [33m2.017260e+03[39m
     18 Linear |R| = [33m2.010209e+03[39m
     19 Linear |R| = [33m2.008492e+03[39m
     20 Linear |R| = [33m1.979214e+03[39m
  Linear solve did not converge due to DIVERGED_ITS iterations 20
 3 Nonlinear |R| = [33m2.432199e+03[39m
      0 Linear |R| = [32m2.432199e+03[39m
      1 Linear |R| = [33m2.428174e+03[39m
      2 Linear |R| = [32m2.253807e+03[39m
      3 Linear |R| = [33m2.253707e+03[39m
      4 Linear |R| = [33m2.249726e+03[39m
      5 Linear |R| = [33m2.248991e+03[39m
      6 Linear |R| = [33m2.205003e+03[39m
      7 Linear |R| = [33m2.197605e+03[39m
      8 Linear |R| = [33m2.197383e+03[39m
      9 Linear |R| = [33m2.162870e+03[39m
     10 Linear |R| = [33m2.162142e+03[39m
     11 Linear |R| = [33m2.160114e+03[39m
     12 Linear |R| = [33m2.158749e+03[39m
     13 Linear |R| = [33m2.154854e+03[39m
     14 Linear |R| = [33m2.147856e+03[39m
     15 Linear |R| = [33m2.146421e+03[39m
     16 Linear |R| = [33m2.110054e+03[39m
     17 Linear |R| = [33m2.018372e+03[39m
     18 Linear |R| = [33m2.018111e+03[39m
     19 Linear |R| = [33m2.010479e+03[39m
     20 Linear |R| = [33m2.010332e+03[39m
  Linear solve did not converge due to DIVERGED_ITS iterations 20
 4 Nonlinear |R| = [33m2.432199e+03[39m
      0 Linear |R| = [32m2.432199e+03[39m
      1 Linear |R| = [33m2.430248e+03[39m
      2 Linear |R| = [33m2.351027e+03[39m
      3 Linear |R| = [33m2.337007e+03[39m
      4 Linear |R| = [33m2.328300e+03[39m
      5 Linear |R| = [33m2.328284e+03[39m
      6 Linear |R| = [33m2.325826e+03[39m
      7 Linear |R| = [33m2.322763e+03[39m
      8 Linear |R| = [33m2.311116e+03[39m
      9 Linear |R| = [33m2.310184e+03[39m
     10 Linear |R| = [33m2.287286e+03[39m
     11 Linear |R| = [33m2.221905e+03[39m
     12 Linear |R| = [32m2.091396e+03[39m
     13 Linear |R| = [33m2.086742e+03[39m
     14 Linear |R| = [33m2.086726e+03[39m
     15 Linear |R| = [33m2.086675e+03[39m
     16 Linear |R| = [33m2.085316e+03[39m
     17 Linear |R| = [33m2.041803e+03[39m
     18 Linear |R| = [33m2.036062e+03[39m
     19 Linear |R| = [33m2.034490e+03[39m
     20 Linear |R| = [33m2.032082e+03[39m
  Linear solve did not converge due to DIVERGED_ITS iterations 20
 5 Nonlinear |R| = [33m2.432198e+03[39m
      0 Linear |R| = [32m2.432198e+03[39m
      1 Linear |R| = [33m2.432088e+03[39m
      2 Linear |R| = [33m2.412949e+03[39m
      3 Linear |R| = [32m2.289360e+03[39m
      4 Linear |R| = [33m2.187770e+03[39m
      5 Linear |R| = [33m2.169726e+03[39m
      6 Linear |R| = [33m2.158076e+03[39m
      7 Linear |R| = [33m2.148158e+03[39m
      8 Linear |R| = [33m2.144569e+03[39m
      9 Linear |R| = [33m2.094364e+03[39m
     10 Linear |R| = [33m2.089237e+03[39m
     11 Linear |R| = [33m2.088508e+03[39m
     12 Linear |R| = [33m2.085010e+03[39m
     13 Linear |R| = [33m2.074381e+03[39m
     14 Linear |R| = [33m2.073756e+03[39m
     15 Linear |R| = [33m2.072909e+03[39m
     16 Linear |R| = [33m2.072071e+03[39m
     17 Linear |R| = [33m2.064031e+03[39m
     18 Linear |R| = [33m2.059983e+03[39m
     19 Linear |R| = [33m2.051210e+03[39m
     20 Linear |R| = [33m2.011891e+03[39m
  Linear solve did not converge due to DIVERGED_ITS iterations 20
Nonlinear solve did not converge due to DIVERGED_LINE_SEARCH iterations 5
[31m Solve Did NOT Converge![39m
Aborting as solve did not converge

Solve failed, cutting timestep.

Time Step 2, time = 11.2158, dt = 1.21577
 0 Nonlinear |R| = [32m3.227676e+03[39m
      0 Linear |R| = [32m3.227676e+03[39m
      1 Linear |R| = [32m2.432667e+03[39m
      2 Linear |R| = [33m2.388844e+03[39m
      3 Linear |R| = [32m2.242230e+03[39m
      4 Linear |R| = [33m2.152030e+03[39m
      5 Linear |R| = [33m2.072510e+03[39m
      6 Linear |R| = [33m2.007400e+03[39m
      7 Linear |R| = [33m1.992325e+03[39m
      8 Linear |R| = [33m1.990916e+03[39m
      9 Linear |R| = [33m1.975260e+03[39m
     10 Linear |R| = [33m1.958911e+03[39m
     11 Linear |R| = [33m1.956828e+03[39m
     12 Linear |R| = [33m1.956108e+03[39m
     13 Linear |R| = [33m1.944901e+03[39m
     14 Linear |R| = [33m1.941581e+03[39m
     15 Linear |R| = [33m1.941537e+03[39m
     16 Linear |R| = [33m1.940348e+03[39m
     17 Linear |R| = [33m1.940330e+03[39m
     18 Linear |R| = [33m1.939329e+03[39m
     19 Linear |R| = [33m1.920604e+03[39m
     20 Linear |R| = [33m1.851296e+03[39m
  Linear solve did not converge due to DIVERGED_ITS iterations 20
 1 Nonlinear |R| = [32m2.934304e+03[39m
      0 Linear |R| = [32m2.934304e+03[39m
      1 Linear |R| = [33m2.931052e+03[39m
      2 Linear |R| = [33m2.915589e+03[39m
      3 Linear |R| = [32m2.754440e+03[39m
      4 Linear |R| = [33m2.743051e+03[39m
      5 Linear |R| = [33m2.654220e+03[39m
      6 Linear |R| = [33m2.563078e+03[39m
      7 Linear |R| = [33m2.544875e+03[39m
      8 Linear |R| = [33m2.540530e+03[39m
      9 Linear |R| = [33m2.532393e+03[39m
     10 Linear |R| = [33m2.521942e+03[39m
     11 Linear |R| = [33m2.520094e+03[39m
     12 Linear |R| = [33m2.487387e+03[39m
     13 Linear |R| = [33m2.487347e+03[39m
     14 Linear |R| = [33m2.472128e+03[39m
     15 Linear |R| = [33m2.468807e+03[39m
     16 Linear |R| = [33m2.468806e+03[39m
     17 Linear |R| = [33m2.464699e+03[39m
     18 Linear |R| = [33m2.447814e+03[39m
     19 Linear |R| = [33m2.429534e+03[39m
     20 Linear |R| = [33m2.427695e+03[39m
  Linear solve did not converge due to DIVERGED_ITS iterations 20
 2 Nonlinear |R| = [33m2.934304e+03[39m
      0 Linear |R| = [32m2.934304e+03[39m
      1 Linear |R| = [33m2.921102e+03[39m
      2 Linear |R| = [33m2.894143e+03[39m
      3 Linear |R| = [33m2.864626e+03[39m
      4 Linear |R| = [33m2.862272e+03[39m
      5 Linear |R| = [32m2.601310e+03[39m
      6 Linear |R| = [33m2.533350e+03[39m
      7 Linear |R| = [33m2.518332e+03[39m
      8 Linear |R| = [33m2.510819e+03[39m
      9 Linear |R| = [33m2.496722e+03[39m
     10 Linear |R| = [33m2.473019e+03[39m
     11 Linear |R| = [33m2.466250e+03[39m
     12 Linear |R| = [33m2.466225e+03[39m
     13 Linear |R| = [33m2.446192e+03[39m
     14 Linear |R| = [33m2.432136e+03[39m
     15 Linear |R| = [33m2.425129e+03[39m
     16 Linear |R| = [33m2.411582e+03[39m
     17 Linear |R| = [33m2.410297e+03[39m
     18 Linear |R| = [33m2.409858e+03[39m
     19 Linear |R| = [33m2.401220e+03[39m
     20 Linear |R| = [33m2.396454e+03[39m
  Linear solve did not converge due to DIVERGED_ITS iterations 20
 3 Nonlinear |R| = [33m2.934300e+03[39m
      0 Linear |R| = [32m2.934300e+03[39m
      1 Linear |R| = [33m2.932548e+03[39m
      2 Linear |R| = [33m2.918648e+03[39m
      3 Linear |R| = [33m2.907471e+03[39m
      4 Linear |R| = [32m2.709161e+03[39m
      5 Linear |R| = [33m2.678327e+03[39m
      6 Linear |R| = [33m2.654258e+03[39m
      7 Linear |R| = [33m2.644228e+03[39m
      8 Linear |R| = [33m2.637281e+03[39m
      9 Linear |R| = [33m2.630158e+03[39m
     10 Linear |R| = [33m2.619845e+03[39m
     11 Linear |R| = [33m2.599924e+03[39m
     12 Linear |R| = [33m2.582991e+03[39m
     13 Linear |R| = [33m2.551643e+03[39m
     14 Linear |R| = [33m2.525072e+03[39m
     15 Linear |R| = [33m2.522420e+03[39m
     16 Linear |R| = [33m2.520213e+03[39m
     17 Linear |R| = [33m2.492670e+03[39m
     18 Linear |R| = [33m2.485281e+03[39m
     19 Linear |R| = [33m2.482195e+03[39m
     20 Linear |R| = [33m2.467671e+03[39m
  Linear solve did not converge due to DIVERGED_ITS iterations 20
 4 Nonlinear |R| = [33m2.934300e+03[39m
      0 Linear |R| = [32m2.934300e+03[39m
      1 Linear |R| = [33m2.930232e+03[39m
      2 Linear |R| = [33m2.923855e+03[39m
      3 Linear |R| = [33m2.917209e+03[39m
      4 Linear |R| = [33m2.884778e+03[39m
      5 Linear |R| = [33m2.856567e+03[39m
      6 Linear |R| = [33m2.847063e+03[39m
      7 Linear |R| = [32m2.693807e+03[39m
      8 Linear |R| = [33m2.686723e+03[39m
      9 Linear |R| = [33m2.661954e+03[39m
     10 Linear |R| = [33m2.650139e+03[39m
     11 Linear |R| = [33m2.644662e+03[39m
     12 Linear |R| = [33m2.604677e+03[39m
     13 Linear |R| = [33m2.602670e+03[39m
     14 Linear |R| = [33m2.572129e+03[39m
     15 Linear |R| = [33m2.549047e+03[39m
     16 Linear |R| = [33m2.536085e+03[39m
     17 Linear |R| = [33m2.525807e+03[39m
     18 Linear |R| = [33m2.509444e+03[39m
     19 Linear |R| = [33m2.500823e+03[39m
     20 Linear |R| = [33m2.498583e+03[39m
  Linear solve did not converge due to DIVERGED_ITS iterations 20
 5 Nonlinear |R| = [33m2.934300e+03[39m
      0 Linear |R| = [32m2.934300e+03[39m
      1 Linear |R| = [33m2.933421e+03[39m
      2 Linear |R| = [32m2.750055e+03[39m
      3 Linear |R| = [33m2.714669e+03[39m
      4 Linear |R| = [33m2.712074e+03[39m
      5 Linear |R| = [33m2.690752e+03[39m
      6 Linear |R| = [33m2.664923e+03[39m
      7 Linear |R| = [33m2.636758e+03[39m
      8 Linear |R| = [33m2.602971e+03[39m
      9 Linear |R| = [33m2.597369e+03[39m
     10 Linear |R| = [33m2.588002e+03[39m
     11 Linear |R| = [33m2.559546e+03[39m
     12 Linear |R| = [33m2.556272e+03[39m
     13 Linear |R| = [33m2.556260e+03[39m
     14 Linear |R| = [33m2.554529e+03[39m
     15 Linear |R| = [33m2.538731e+03[39m
     16 Linear |R| = [33m2.537351e+03[39m
     17 Linear |R| = [33m2.537282e+03[39m
     18 Linear |R| = [33m2.529626e+03[39m
     19 Linear |R| = [33m2.513127e+03[39m
     20 Linear |R| = [33m2.512034e+03[39m
  Linear solve did not converge due to DIVERGED_ITS iterations 20
 6 Nonlinear |R| = [33m2.934300e+03[39m
      0 Linear |R| = [32m2.934300e+03[39m
      1 Linear |R| = [33m2.932988e+03[39m
      2 Linear |R| = [33m2.930448e+03[39m
      3 Linear |R| = [33m2.864179e+03[39m
      4 Linear |R| = [33m2.855436e+03[39m
      5 Linear |R| = [33m2.814332e+03[39m
      6 Linear |R| = [33m2.782084e+03[39m
      7 Linear |R| = [33m2.752687e+03[39m
      8 Linear |R| = [33m2.734304e+03[39m
      9 Linear |R| = [33m2.726814e+03[39m
     10 Linear |R| = [33m2.723841e+03[39m
     11 Linear |R| = [33m2.714995e+03[39m
     12 Linear |R| = [33m2.660534e+03[39m
     13 Linear |R| = [33m2.650419e+03[39m
     14 Linear |R| = [33m2.595898e+03[39m
     15 Linear |R| = [33m2.590170e+03[39m
     16 Linear |R| = [33m2.586747e+03[39m
     17 Linear |R| = [33m2.530539e+03[39m
     18 Linear |R| = [33m2.529030e+03[39m
     19 Linear |R| = [33m2.525772e+03[39m
     20 Linear |R| = [33m2.482125e+03[39m
  Linear solve did not converge due to DIVERGED_ITS iterations 20
 7 Nonlinear |R| = [33m2.934300e+03[39m
      0 Linear |R| = [32m2.934300e+03[39m
      1 Linear |R| = [33m2.932220e+03[39m
      2 Linear |R| = [33m2.861346e+03[39m
      3 Linear |R| = [32m2.688794e+03[39m
      4 Linear |R| = [33m2.663402e+03[39m
      5 Linear |R| = [33m2.649168e+03[39m
      6 Linear |R| = [33m2.645513e+03[39m
      7 Linear |R| = [33m2.577777e+03[39m
      8 Linear |R| = [33m2.576555e+03[39m
      9 Linear |R| = [33m2.533881e+03[39m
     10 Linear |R| = [33m2.504603e+03[39m
     11 Linear |R| = [33m2.503496e+03[39m
     12 Linear |R| = [33m2.488426e+03[39m
     13 Linear |R| = [33m2.486661e+03[39m
     14 Linear |R| = [33m2.484778e+03[39m
     15 Linear |R| = [33m2.482706e+03[39m
     16 Linear |R| = [33m2.482462e+03[39m
     17 Linear |R| = [33m2.480805e+03[39m
     18 Linear |R| = [33m2.480133e+03[39m
     19 Linear |R| = [33m2.473282e+03[39m
     20 Linear |R| = [33m2.467113e+03[39m
  Linear solve did not converge due to DIVERGED_ITS iterations 20
 8 Nonlinear |R| = [33m2.934300e+03[39m
      0 Linear |R| = [32m2.934300e+03[39m
      1 Linear |R| = [33m2.934253e+03[39m
      2 Linear |R| = [33m2.928301e+03[39m
      3 Linear |R| = [32m2.726870e+03[39m
      4 Linear |R| = [33m2.725999e+03[39m
      5 Linear |R| = [33m2.713553e+03[39m
      6 Linear |R| = [33m2.682220e+03[39m
      7 Linear |R| = [33m2.679757e+03[39m
      8 Linear |R| = [33m2.677814e+03[39m
      9 Linear |R| = [33m2.675325e+03[39m
     10 Linear |R| = [33m2.659233e+03[39m
     11 Linear |R| = [33m2.658804e+03[39m
     12 Linear |R| = [33m2.654067e+03[39m
     13 Linear |R| = [33m2.637855e+03[39m
     14 Linear |R| = [33m2.606749e+03[39m
     15 Linear |R| = [33m2.604249e+03[39m
     16 Linear |R| = [33m2.517016e+03[39m
     17 Linear |R| = [33m2.510440e+03[39m
     18 Linear |R| = [33m2.488809e+03[39m
     19 Linear |R| = [33m2.477251e+03[39m
     20 Linear |R| = [33m2.456463e+03[39m
  Linear solve did not converge due to DIVERGED_ITS iterations 20
Nonlinear solve did not converge due to DIVERGED_LINE_SEARCH iterations 8
[31m Solve Did NOT Converge![39m
Aborting as solve did not converge

Solve failed, cutting timestep.

Time Step 2, time = 11.0942, dt = 1.09419
 0 Nonlinear |R| = [32m3.227676e+03[39m
      0 Linear |R| = [32m3.227676e+03[39m
      1 Linear |R| = [32m2.110514e+03[39m
      2 Linear |R| = [33m2.107963e+03[39m
      3 Linear |R| = [33m2.090230e+03[39m
      4 Linear |R| = [33m2.069287e+03[39m
      5 Linear |R| = [33m2.031462e+03[39m
      6 Linear |R| = [33m2.022268e+03[39m
      7 Linear |R| = [33m2.015436e+03[39m
      8 Linear |R| = [33m2.015110e+03[39m
      9 Linear |R| = [33m2.013656e+03[39m
     10 Linear |R| = [33m2.010877e+03[39m
     11 Linear |R| = [33m2.002083e+03[39m
     12 Linear |R| = [33m1.968593e+03[39m
     13 Linear |R| = [33m1.966342e+03[39m
     14 Linear |R| = [33m1.965100e+03[39m
     15 Linear |R| = [33m1.949088e+03[39m
     16 Linear |R| = [33m1.949087e+03[39m
     17 Linear |R| = [33m1.942990e+03[39m
     18 Linear |R| = [33m1.942638e+03[39m
     19 Linear |R| = [33m1.929486e+03[39m
     20 Linear |R| = [33m1.919937e+03[39m
  Linear solve did not converge due to DIVERGED_ITS iterations 20
 1 Nonlinear |R| = [32m2.569158e+03[39m
      0 Linear |R| = [32m2.569158e+03[39m
      1 Linear |R| = [33m2.524836e+03[39m
      2 Linear |R| = [33m2.508365e+03[39m
      3 Linear |R| = [33m2.488910e+03[39m
      4 Linear |R| = [33m2.439802e+03[39m
      5 Linear |R| = [33m2.364823e+03[39m
      6 Linear |R| = [33m2.363422e+03[39m
      7 Linear |R| = [33m2.362731e+03[39m
      8 Linear |R| = [33m2.274610e+03[39m
      9 Linear |R| = [33m2.266867e+03[39m
     10 Linear |R| = [33m2.185514e+03[39m
     11 Linear |R| = [33m2.184933e+03[39m
     12 Linear |R| = [33m2.184870e+03[39m
     13 Linear |R| = [33m2.158127e+03[39m
     14 Linear |R| = [33m2.152102e+03[39m
     15 Linear |R| = [33m2.149783e+03[39m
     16 Linear |R| = [33m2.145875e+03[39m
     17 Linear |R| = [33m2.145546e+03[39m
     18 Linear |R| = [33m2.141578e+03[39m
     19 Linear |R| = [33m2.131330e+03[39m
     20 Linear |R| = [33m2.111348e+03[39m
  Linear solve did not converge due to DIVERGED_ITS iterations 20
 2 Nonlinear |R| = [33m2.569158e+03[39m
      0 Linear |R| = [32m2.569158e+03[39m
      1 Linear |R| = [33m2.567810e+03[39m
      2 Linear |R| = [33m2.512726e+03[39m
      3 Linear |R| = [33m2.439395e+03[39m
      4 Linear |R| = [33m2.428782e+03[39m
      5 Linear |R| = [33m2.427319e+03[39m
      6 Linear |R| = [33m2.423976e+03[39m
      7 Linear |R| = [33m2.406491e+03[39m
      8 Linear |R| = [33m2.341349e+03[39m
      9 Linear |R| = [33m2.294241e+03[39m
     10 Linear |R| = [33m2.280769e+03[39m
     11 Linear |R| = [33m2.275652e+03[39m
     12 Linear |R| = [33m2.262548e+03[39m
     13 Linear |R| = [33m2.185213e+03[39m
     14 Linear |R| = [33m2.183437e+03[39m
     15 Linear |R| = [33m2.168791e+03[39m
     16 Linear |R| = [33m2.163419e+03[39m
     17 Linear |R| = [33m2.158878e+03[39m
     18 Linear |R| = [33m2.095643e+03[39m
     19 Linear |R| = [33m2.091981e+03[39m
     20 Linear |R| = [33m2.091723e+03[39m
  Linear solve did not converge due to DIVERGED_ITS iterations 20
 3 Nonlinear |R| = [33m2.569158e+03[39m
      0 Linear |R| = [32m2.569158e+03[39m
      1 Linear |R| = [33m2.568292e+03[39m
      2 Linear |R| = [33m2.561457e+03[39m
      3 Linear |R| = [33m2.546571e+03[39m
      4 Linear |R| = [33m2.527820e+03[39m
      5 Linear |R| = [33m2.516835e+03[39m
      6 Linear |R| = [33m2.508912e+03[39m
      7 Linear |R| = [33m2.507867e+03[39m
      8 Linear |R| = [33m2.446703e+03[39m
      9 Linear |R| = [33m2.347866e+03[39m
     10 Linear |R| = [33m2.269792e+03[39m
     11 Linear |R| = [33m2.260671e+03[39m
     12 Linear |R| = [33m2.258920e+03[39m
     13 Linear |R| = [33m2.251778e+03[39m
     14 Linear |R| = [33m2.234702e+03[39m
     15 Linear |R| = [33m2.152660e+03[39m
     16 Linear |R| = [33m2.150753e+03[39m
     17 Linear |R| = [33m2.144576e+03[39m
     18 Linear |R| = [33m2.133888e+03[39m
     19 Linear |R| = [33m2.133886e+03[39m
     20 Linear |R| = [33m2.131782e+03[39m
  Linear solve did not converge due to DIVERGED_ITS iterations 20
 4 Nonlinear |R| = [33m2.569139e+03[39m
      0 Linear |R| = [32m2.569139e+03[39m
      1 Linear |R| = [33m2.525694e+03[39m
      2 Linear |R| = [33m2.475781e+03[39m
      3 Linear |R| = [33m2.475766e+03[39m
      4 Linear |R| = [33m2.453402e+03[39m
      5 Linear |R| = [33m2.395741e+03[39m
      6 Linear |R| = [33m2.388631e+03[39m
      7 Linear |R| = [33m2.285171e+03[39m
      8 Linear |R| = [33m2.283524e+03[39m
      9 Linear |R| = [33m2.265333e+03[39m
     10 Linear |R| = [33m2.201784e+03[39m
     11 Linear |R| = [33m2.199442e+03[39m
     12 Linear |R| = [33m2.186884e+03[39m
     13 Linear |R| = [33m2.174520e+03[39m
     14 Linear |R| = [33m2.174472e+03[39m
     15 Linear |R| = [33m2.171617e+03[39m
     16 Linear |R| = [33m2.167243e+03[39m
     17 Linear |R| = [33m2.159032e+03[39m
     18 Linear |R| = [33m2.151744e+03[39m
     19 Linear |R| = [33m2.151664e+03[39m
     20 Linear |R| = [33m2.149416e+03[39m
  Linear solve did not converge due to DIVERGED_ITS iterations 20
 5 Nonlinear |R| = [33m2.569138e+03[39m
      0 Linear |R| = [32m2.569138e+03[39m
      1 Linear |R| = [33m2.536522e+03[39m
      2 Linear |R| = [32m2.235907e+03[39m
      3 Linear |R| = [33m2.235744e+03[39m
      4 Linear |R| = [33m2.224200e+03[39m
      5 Linear |R| = [33m2.218121e+03[39m
      6 Linear |R| = [33m2.217684e+03[39m
      7 Linear |R| = [33m2.217653e+03[39m
      8 Linear |R| = [33m2.209750e+03[39m
      9 Linear |R| = [33m2.203974e+03[39m
     10 Linear |R| = [33m2.162092e+03[39m
     11 Linear |R| = [33m2.161530e+03[39m
     12 Linear |R| = [33m2.124480e+03[39m
     13 Linear |R| = [33m2.116250e+03[39m
     14 Linear |R| = [33m2.113343e+03[39m
     15 Linear |R| = [33m2.113015e+03[39m
     16 Linear |R| = [33m2.102804e+03[39m
     17 Linear |R| = [33m2.102023e+03[39m
     18 Linear |R| = [33m2.101720e+03[39m
     19 Linear |R| = [33m2.100063e+03[39m
     20 Linear |R| = [33m2.096263e+03[39m
  Linear solve did not converge due to DIVERGED_ITS iterations 20
 6 Nonlinear |R| = [33m2.569138e+03[39m
      0 Linear |R| = [32m2.569138e+03[39m
      1 Linear |R| = [33m2.568391e+03[39m
      2 Linear |R| = [32m2.320746e+03[39m
      3 Linear |R| = [33m2.315643e+03[39m
      4 Linear |R| = [33m2.270262e+03[39m
      5 Linear |R| = [33m2.211522e+03[39m
      6 Linear |R| = [33m2.210007e+03[39m
      7 Linear |R| = [33m2.173281e+03[39m
      8 Linear |R| = [33m2.172226e+03[39m
      9 Linear |R| = [33m2.169682e+03[39m
     10 Linear |R| = [33m2.155513e+03[39m
     11 Linear |R| = [33m2.145723e+03[39m
     12 Linear |R| = [33m2.145720e+03[39m
     13 Linear |R| = [33m2.144318e+03[39m
     14 Linear |R| = [33m2.130912e+03[39m
     15 Linear |R| = [33m2.130615e+03[39m
     16 Linear |R| = [33m2.128117e+03[39m
     17 Linear |R| = [33m2.121841e+03[39m
     18 Linear |R| = [33m2.121106e+03[39m
     19 Linear |R| = [33m2.120135e+03[39m
     20 Linear |R| = [33m2.111365e+03[39m
  Linear solve did not converge due to DIVERGED_ITS iterations 20
 7 Nonlinear |R| = [33m2.569138e+03[39m
      0 Linear |R| = [32m2.569138e+03[39m
      1 Linear |R| = [33m2.552716e+03[39m
      2 Linear |R| = [33m2.447755e+03[39m
      3 Linear |R| = [33m2.443085e+03[39m
      4 Linear |R| = [33m2.349290e+03[39m
      5 Linear |R| = [33m2.345485e+03[39m
      6 Linear |R| = [33m2.299343e+03[39m
      7 Linear |R| = [33m2.233017e+03[39m
      8 Linear |R| = [33m2.214667e+03[39m
      9 Linear |R| = [33m2.169840e+03[39m
     10 Linear |R| = [33m2.164550e+03[39m
     11 Linear |R| = [33m2.162473e+03[39m
     12 Linear |R| = [33m2.162419e+03[39m
     13 Linear |R| = [33m2.161000e+03[39m
     14 Linear |R| = [33m2.140157e+03[39m
     15 Linear |R| = [33m2.130525e+03[39m
     16 Linear |R| = [33m2.118422e+03[39m
     17 Linear |R| = [33m2.118314e+03[39m
     18 Linear |R| = [33m2.118133e+03[39m
     19 Linear |R| = [33m2.104392e+03[39m
     20 Linear |R| = [33m2.100900e+03[39m
  Linear solve did not converge due to DIVERGED_ITS iterations 20
 8 Nonlinear |R| = [33m2.569138e+03[39m
      0 Linear |R| = [32m2.569138e+03[39m
      1 Linear |R| = [33m2.509823e+03[39m
      2 Linear |R| = [32m2.335004e+03[39m
      3 Linear |R| = [33m2.334700e+03[39m
      4 Linear |R| = [33m2.254646e+03[39m
      5 Linear |R| = [33m2.243897e+03[39m
      6 Linear |R| = [33m2.209229e+03[39m
      7 Linear |R| = [33m2.198564e+03[39m
      8 Linear |R| = [33m2.198122e+03[39m
      9 Linear |R| = [33m2.183964e+03[39m
     10 Linear |R| = [33m2.183950e+03[39m
     11 Linear |R| = [33m2.182655e+03[39m
     12 Linear |R| = [33m2.126321e+03[39m
     13 Linear |R| = [33m2.125364e+03[39m
     14 Linear |R| = [33m2.125319e+03[39m
     15 Linear |R| = [33m2.125319e+03[39m
     16 Linear |R| = [33m2.114276e+03[39m
     17 Linear |R| = [33m2.103080e+03[39m
     18 Linear |R| = [33m2.101843e+03[39m
     19 Linear |R| = [33m2.099923e+03[39m
     20 Linear |R| = [33m2.076871e+03[39m
  Linear solve did not converge due to DIVERGED_ITS iterations 20
 9 Nonlinear |R| = [33m2.569138e+03[39m
      0 Linear |R| = [32m2.569138e+03[39m
      1 Linear |R| = [33m2.494363e+03[39m
      2 Linear |R| = [33m2.403079e+03[39m
      3 Linear |R| = [33m2.387385e+03[39m
      4 Linear |R| = [33m2.313341e+03[39m
      5 Linear |R| = [33m2.214113e+03[39m
      6 Linear |R| = [33m2.206151e+03[39m
      7 Linear |R| = [33m2.205848e+03[39m
      8 Linear |R| = [33m2.205091e+03[39m
      9 Linear |R| = [33m2.171091e+03[39m
     10 Linear |R| = [33m2.170145e+03[39m
     11 Linear |R| = [33m2.170065e+03[39m
     12 Linear |R| = [33m2.167682e+03[39m
     13 Linear |R| = [33m2.156125e+03[39m
     14 Linear |R| = [33m2.154621e+03[39m
     15 Linear |R| = [33m2.154602e+03[39m
     16 Linear |R| = [33m2.153353e+03[39m
     17 Linear |R| = [33m2.149640e+03[39m
     18 Linear |R| = [33m2.148405e+03[39m
     19 Linear |R| = [33m2.144785e+03[39m
     20 Linear |R| = [33m2.142953e+03[39m
  Linear solve did not converge due to DIVERGED_ITS iterations 20
Nonlinear solve did not converge due to DIVERGED_LINE_SEARCH iterations 9
[31m Solve Did NOT Converge![39m
Aborting as solve did not converge

Solve failed, cutting timestep.

Time Step 2, time = 10.9848, dt = 0.984771
 0 Nonlinear |R| = [32m3.227676e+03[39m
      0 Linear |R| = [32m3.227676e+03[39m
      1 Linear |R| = [32m2.029237e+03[39m
      2 Linear |R| = [33m2.027866e+03[39m
      3 Linear |R| = [33m2.023754e+03[39m
      4 Linear |R| = [33m2.003947e+03[39m
      5 Linear |R| = [33m2.001617e+03[39m
      6 Linear |R| = [33m1.992873e+03[39m
      7 Linear |R| = [33m1.976329e+03[39m
      8 Linear |R| = [33m1.975127e+03[39m
      9 Linear |R| = [33m1.964225e+03[39m
     10 Linear |R| = [33m1.964198e+03[39m
     11 Linear |R| = [33m1.963871e+03[39m
     12 Linear |R| = [33m1.962814e+03[39m
     13 Linear |R| = [33m1.962334e+03[39m
     14 Linear |R| = [33m1.956415e+03[39m
     15 Linear |R| = [33m1.951705e+03[39m
     16 Linear |R| = [33m1.951150e+03[39m
     17 Linear |R| = [33m1.950522e+03[39m
     18 Linear |R| = [33m1.949889e+03[39m
     19 Linear |R| = [33m1.945521e+03[39m
     20 Linear |R| = [33m1.941466e+03[39m
  Linear solve did not converge due to DIVERGED_ITS iterations 20
 1 Nonlinear |R| = [32m1.762930e+03[39m
      0 Linear |R| = [32m1.762930e+03[39m
      1 Linear |R| = [33m1.757121e+03[39m
      2 Linear |R| = [33m1.755526e+03[39m
      3 Linear |R| = [33m1.745581e+03[39m
      4 Linear |R| = [33m1.733694e+03[39m
      5 Linear |R| = [32m1.617421e+03[39m
      6 Linear |R| = [33m1.600887e+03[39m
      7 Linear |R| = [33m1.576251e+03[39m
      8 Linear |R| = [33m1.515605e+03[39m
      9 Linear |R| = [33m1.515252e+03[39m
     10 Linear |R| = [33m1.496529e+03[39m
     11 Linear |R| = [33m1.496281e+03[39m
     12 Linear |R| = [33m1.494536e+03[39m
     13 Linear |R| = [33m1.493826e+03[39m
     14 Linear |R| = [33m1.468138e+03[39m
     15 Linear |R| = [33m1.466422e+03[39m
     16 Linear |R| = [33m1.466421e+03[39m
     17 Linear |R| = [33m1.463383e+03[39m
     18 Linear |R| = [33m1.462547e+03[39m
     19 Linear |R| = [33m1.441805e+03[39m
     20 Linear |R| = [33m1.439158e+03[39m
  Linear solve did not converge due to DIVERGED_ITS iterations 20
 2 Nonlinear |R| = [33m1.762929e+03[39m
      0 Linear |R| = [32m1.762929e+03[39m
      1 Linear |R| = [33m1.762528e+03[39m
      2 Linear |R| = [33m1.754772e+03[39m
      3 Linear |R| = [33m1.750841e+03[39m
      4 Linear |R| = [33m1.737528e+03[39m
      5 Linear |R| = [33m1.728034e+03[39m
      6 Linear |R| = [33m1.723660e+03[39m
      7 Linear |R| = [32m1.615876e+03[39m
      8 Linear |R| = [33m1.594208e+03[39m
      9 Linear |R| = [33m1.591455e+03[39m
     10 Linear |R| = [33m1.585963e+03[39m
     11 Linear |R| = [33m1.584582e+03[39m
     12 Linear |R| = [33m1.582200e+03[39m
     13 Linear |R| = [33m1.579441e+03[39m
     14 Linear |R| = [33m1.565065e+03[39m
     15 Linear |R| = [33m1.556537e+03[39m
     16 Linear |R| = [33m1.554178e+03[39m
     17 Linear |R| = [33m1.503684e+03[39m
     18 Linear |R| = [33m1.498509e+03[39m
     19 Linear |R| = [33m1.492051e+03[39m
     20 Linear |R| = [33m1.452020e+03[39m
  Linear solve did not converge due to DIVERGED_ITS iterations 20
 3 Nonlinear |R| = [33m1.762929e+03[39m
      0 Linear |R| = [32m1.762929e+03[39m
      1 Linear |R| = [33m1.760630e+03[39m
      2 Linear |R| = [33m1.760502e+03[39m
      3 Linear |R| = [33m1.752159e+03[39m
      4 Linear |R| = [33m1.749834e+03[39m
      5 Linear |R| = [32m1.613111e+03[39m
      6 Linear |R| = [33m1.602728e+03[39m
      7 Linear |R| = [33m1.560866e+03[39m
      8 Linear |R| = [33m1.559026e+03[39m
      9 Linear |R| = [33m1.542416e+03[39m
     10 Linear |R| = [33m1.538031e+03[39m
     11 Linear |R| = [33m1.527947e+03[39m
     12 Linear |R| = [33m1.526440e+03[39m
     13 Linear |R| = [33m1.526079e+03[39m
     14 Linear |R| = [33m1.511388e+03[39m
     15 Linear |R| = [33m1.503608e+03[39m
     16 Linear |R| = [33m1.502995e+03[39m
     17 Linear |R| = [33m1.483087e+03[39m
     18 Linear |R| = [33m1.473475e+03[39m
     19 Linear |R| = [33m1.453338e+03[39m
     20 Linear |R| = [33m1.444956e+03[39m
  Linear solve did not converge due to DIVERGED_ITS iterations 20
 4 Nonlinear |R| = [33m1.762929e+03[39m
      0 Linear |R| = [32m1.762929e+03[39m
      1 Linear |R| = [33m1.760552e+03[39m
      2 Linear |R| = [33m1.695277e+03[39m
      3 Linear |R| = [33m1.693475e+03[39m
      4 Linear |R| = [33m1.690363e+03[39m
      5 Linear |R| = [33m1.688267e+03[39m
      6 Linear |R| = [32m1.585306e+03[39m
      7 Linear |R| = [33m1.580699e+03[39m
      8 Linear |R| = [33m1.578217e+03[39m
      9 Linear |R| = [33m1.533356e+03[39m
     10 Linear |R| = [33m1.529741e+03[39m
     11 Linear |R| = [33m1.529725e+03[39m
     12 Linear |R| = [33m1.522789e+03[39m
     13 Linear |R| = [33m1.515801e+03[39m
     14 Linear |R| = [33m1.507285e+03[39m
     15 Linear |R| = [33m1.506409e+03[39m
     16 Linear |R| = [33m1.498468e+03[39m
     17 Linear |R| = [33m1.498171e+03[39m
     18 Linear |R| = [33m1.497876e+03[39m
     19 Linear |R| = [33m1.495487e+03[39m
     20 Linear |R| = [33m1.495487e+03[39m
  Linear solve did not converge due to DIVERGED_ITS iterations 20
Nonlinear solve did not converge due to DIVERGED_LINE_SEARCH iterations 4
[31m Solve Did NOT Converge![39m
Aborting as solve did not converge

Solve failed, cutting timestep.

Time Step 2, time = 10.8863, dt = 0.886294
Computing initial residual                                                                 [[33m  1.00 s[39m]
 0 Nonlinear |R| = [32m3.227676e+03[39m
      0 Linear |R| = [32m3.227676e+03[39m
      1 Linear |R| = [32m2.209568e+03[39m
      2 Linear |R| = [33m2.157772e+03[39m
      3 Linear |R| = [33m2.157607e+03[39m
      4 Linear |R| = [33m2.141238e+03[39m
      5 Linear |R| = [33m2.060095e+03[39m
      6 Linear |R| = [33m2.034629e+03[39m
      7 Linear |R| = [33m2.033453e+03[39m
      8 Linear |R| = [33m2.028523e+03[39m
      9 Linear |R| = [33m2.028082e+03[39m
     10 Linear |R| = [33m2.018533e+03[39m
     11 Linear |R| = [33m2.018527e+03[39m
     12 Linear |R| = [33m2.017440e+03[39m
     13 Linear |R| = [33m1.934812e+03[39m
     14 Linear |R| = [33m1.920460e+03[39m
     15 Linear |R| = [33m1.917513e+03[39m
     16 Linear |R| = [33m1.914633e+03[39m
     17 Linear |R| = [33m1.914571e+03[39m
     18 Linear |R| = [33m1.914215e+03[39m
     19 Linear |R| = [33m1.912430e+03[39m
     20 Linear |R| = [33m1.905745e+03[39m
  Linear solve did not converge due to DIVERGED_ITS iterations 20
 1 Nonlinear |R| = [32m2.813045e+03[39m
      0 Linear |R| = [32m2.813045e+03[39m
      1 Linear |R| = [33m2.809801e+03[39m
      2 Linear |R| = [33m2.786429e+03[39m
      3 Linear |R| = [33m2.777381e+03[39m
      4 Linear |R| = [32m2.603648e+03[39m
      5 Linear |R| = [33m2.565092e+03[39m
      6 Linear |R| = [33m2.461212e+03[39m
      7 Linear |R| = [33m2.437434e+03[39m
      8 Linear |R| = [33m2.398886e+03[39m
      9 Linear |R| = [33m2.396395e+03[39m
     10 Linear |R| = [33m2.391973e+03[39m
     11 Linear |R| = [33m2.391149e+03[39m
     12 Linear |R| = [33m2.386096e+03[39m
     13 Linear |R| = [33m2.385976e+03[39m
     14 Linear |R| = [33m2.385225e+03[39m
     15 Linear |R| = [33m2.363994e+03[39m
     16 Linear |R| = [33m2.363424e+03[39m
     17 Linear |R| = [33m2.363204e+03[39m
     18 Linear |R| = [33m2.352554e+03[39m
     19 Linear |R| = [33m2.347257e+03[39m
     20 Linear |R| = [33m2.344015e+03[39m
  Linear solve did not converge due to DIVERGED_ITS iterations 20
 2 Nonlinear |R| = [33m2.813029e+03[39m
      0 Linear |R| = [32m2.813029e+03[39m
      1 Linear |R| = [33m2.807783e+03[39m
      2 Linear |R| = [33m2.718929e+03[39m
      3 Linear |R| = [33m2.717737e+03[39m
      4 Linear |R| = [33m2.712720e+03[39m
      5 Linear |R| = [33m2.702893e+03[39m
      6 Linear |R| = [33m2.700355e+03[39m
      7 Linear |R| = [33m2.672670e+03[39m
      8 Linear |R| = [33m2.659888e+03[39m
      9 Linear |R| = [33m2.650421e+03[39m
     10 Linear |R| = [32m2.405918e+03[39m
     11 Linear |R| = [33m2.405818e+03[39m
     12 Linear |R| = [33m2.358344e+03[39m
     13 Linear |R| = [33m2.353117e+03[39m
     14 Linear |R| = [33m2.347073e+03[39m
     15 Linear |R| = [33m2.344813e+03[39m
     16 Linear |R| = [33m2.342626e+03[39m
     17 Linear |R| = [33m2.330605e+03[39m
     18 Linear |R| = [33m2.298616e+03[39m
     19 Linear |R| = [33m2.298295e+03[39m
     20 Linear |R| = [33m2.298074e+03[39m
  Linear solve did not converge due to DIVERGED_ITS iterations 20
 3 Nonlinear |R| = [33m2.813029e+03[39m
      0 Linear |R| = [32m2.813029e+03[39m
      1 Linear |R| = [33m2.808324e+03[39m
      2 Linear |R| = [33m2.740784e+03[39m
      3 Linear |R| = [33m2.740192e+03[39m
      4 Linear |R| = [33m2.737185e+03[39m
      5 Linear |R| = [33m2.732828e+03[39m
      6 Linear |R| = [33m2.675684e+03[39m
      7 Linear |R| = [33m2.668650e+03[39m
      8 Linear |R| = [33m2.666793e+03[39m
      9 Linear |R| = [33m2.663083e+03[39m
     10 Linear |R| = [33m2.639788e+03[39m
     11 Linear |R| = [33m2.635871e+03[39m
     12 Linear |R| = [33m2.632743e+03[39m
     13 Linear |R| = [33m2.592164e+03[39m
     14 Linear |R| = [33m2.531594e+03[39m
     15 Linear |R| = [33m2.528447e+03[39m
     16 Linear |R| = [33m2.505149e+03[39m
     17 Linear |R| = [33m2.474114e+03[39m
     18 Linear |R| = [33m2.457563e+03[39m
     19 Linear |R| = [33m2.454399e+03[39m
     20 Linear |R| = [33m2.432702e+03[39m
  Linear solve did not converge due to DIVERGED_ITS iterations 20
 4 Nonlinear |R| = [33m2.813029e+03[39m
      0 Linear |R| = [32m2.813029e+03[39m
      1 Linear |R| = [33m2.812732e+03[39m
      2 Linear |R| = [33m2.711973e+03[39m
      3 Linear |R| = [33m2.667866e+03[39m
      4 Linear |R| = [33m2.542415e+03[39m
      5 Linear |R| = [33m2.542177e+03[39m
      6 Linear |R| = [33m2.506903e+03[39m
      7 Linear |R| = [33m2.505121e+03[39m
      8 Linear |R| = [33m2.462446e+03[39m
      9 Linear |R| = [33m2.461947e+03[39m
     10 Linear |R| = [33m2.460982e+03[39m
     11 Linear |R| = [33m2.347484e+03[39m
     12 Linear |R| = [33m2.345982e+03[39m
     13 Linear |R| = [33m2.345982e+03[39m
     14 Linear |R| = [33m2.340040e+03[39m
     15 Linear |R| = [33m2.339787e+03[39m
     16 Linear |R| = [33m2.338353e+03[39m
     17 Linear |R| = [33m2.337370e+03[39m
     18 Linear |R| = [33m2.336893e+03[39m
     19 Linear |R| = [33m2.321741e+03[39m
     20 Linear |R| = [33m2.308287e+03[39m
  Linear solve did not converge due to DIVERGED_ITS iterations 20
 5 Nonlinear |R| = [33m2.813028e+03[39m
      0 Linear |R| = [32m2.813028e+03[39m
      1 Linear |R| = [33m2.787271e+03[39m
      2 Linear |R| = [33m2.696921e+03[39m
      3 Linear |R| = [33m2.688373e+03[39m
      4 Linear |R| = [33m2.675419e+03[39m
      5 Linear |R| = [33m2.675006e+03[39m
      6 Linear |R| = [33m2.674752e+03[39m
      7 Linear |R| = [33m2.648705e+03[39m
      8 Linear |R| = [33m2.627990e+03[39m
      9 Linear |R| = [33m2.561130e+03[39m
     10 Linear |R| = [33m2.555035e+03[39m
     11 Linear |R| = [33m2.554834e+03[39m
     12 Linear |R| = [33m2.554514e+03[39m
     13 Linear |R| = [33m2.549026e+03[39m
     14 Linear |R| = [33m2.527358e+03[39m
     15 Linear |R| = [33m2.527304e+03[39m
     16 Linear |R| = [33m2.525368e+03[39m
     17 Linear |R| = [33m2.521083e+03[39m
     18 Linear |R| = [33m2.517972e+03[39m
     19 Linear |R| = [33m2.460292e+03[39m
     20 Linear |R| = [33m2.340376e+03[39m
  Linear solve did not converge due to DIVERGED_ITS iterations 20
 6 Nonlinear |R| = [33m2.813028e+03[39m
      0 Linear |R| = [32m2.813028e+03[39m
      1 Linear |R| = [33m2.766084e+03[39m
      2 Linear |R| = [33m2.740051e+03[39m
      3 Linear |R| = [33m2.712791e+03[39m
      4 Linear |R| = [33m2.659253e+03[39m
      5 Linear |R| = [32m2.470183e+03[39m
      6 Linear |R| = [33m2.469984e+03[39m
      7 Linear |R| = [33m2.464837e+03[39m
      8 Linear |R| = [33m2.420270e+03[39m
      9 Linear |R| = [33m2.419512e+03[39m
     10 Linear |R| = [33m2.389076e+03[39m
     11 Linear |R| = [33m2.354012e+03[39m
     12 Linear |R| = [33m2.353731e+03[39m
     13 Linear |R| = [33m2.343802e+03[39m
     14 Linear |R| = [33m2.342371e+03[39m
     15 Linear |R| = [33m2.341894e+03[39m
     16 Linear |R| = [33m2.323773e+03[39m
     17 Linear |R| = [33m2.317634e+03[39m
     18 Linear |R| = [33m2.307367e+03[39m
     19 Linear |R| = [33m2.303272e+03[39m
     20 Linear |R| = [33m2.289486e+03[39m
  Linear solve did not converge due to DIVERGED_ITS iterations 20
 7 Nonlinear |R| = [33m2.813028e+03[39m
      0 Linear |R| = [32m2.813028e+03[39m
      1 Linear |R| = [33m2.803964e+03[39m
      2 Linear |R| = [33m2.803877e+03[39m
      3 Linear |R| = [32m2.649425e+03[39m
      4 Linear |R| = [33m2.600137e+03[39m
      5 Linear |R| = [33m2.598483e+03[39m
      6 Linear |R| = [33m2.581510e+03[39m
      7 Linear |R| = [33m2.577558e+03[39m
      8 Linear |R| = [33m2.557777e+03[39m
      9 Linear |R| = [33m2.557678e+03[39m
     10 Linear |R| = [33m2.556710e+03[39m
     11 Linear |R| = [33m2.549676e+03[39m
     12 Linear |R| = [33m2.497639e+03[39m
     13 Linear |R| = [33m2.491257e+03[39m
     14 Linear |R| = [33m2.477835e+03[39m
     15 Linear |R| = [32m2.330841e+03[39m
     16 Linear |R| = [33m2.329917e+03[39m
     17 Linear |R| = [33m2.329067e+03[39m
     18 Linear |R| = [33m2.302395e+03[39m
     19 Linear |R| = [33m2.298253e+03[39m
     20 Linear |R| = [33m2.294730e+03[39m
  Linear solve did not converge due to DIVERGED_ITS iterations 20
Nonlinear solve did not converge due to DIVERGED_LINE_SEARCH iterations 7
[31m Solve Did NOT Converge![39m
Aborting as solve did not converge

Solve failed, cutting timestep.

Time Step 2, time = 10.7977, dt = 0.797664
 0 Nonlinear |R| = [32m3.227676e+03[39m
      0 Linear |R| = [32m3.227676e+03[39m
      1 Linear |R| = [32m2.027535e+03[39m
      2 Linear |R| = [33m2.018052e+03[39m
      3 Linear |R| = [33m2.009646e+03[39m
